*HEADING
PETG pillbox sleeve wall - nonlinear detent interference submodel
*NODE
1,-10.000000,0.000000,0.000000
2,-9.500000,0.000000,0.000000
3,-9.000000,0.000000,0.000000
4,-8.500000,0.000000,0.000000
5,-8.000000,0.000000,0.000000
6,-7.500000,0.000000,0.000000
7,-7.000000,0.000000,0.000000
8,-6.500000,0.000000,0.000000
9,-6.000000,0.000000,0.000000
10,-5.500000,0.000000,0.000000
11,-5.000000,0.000000,0.000000
12,-4.500000,0.000000,0.000000
13,-4.000000,0.000000,0.000000
14,-3.500000,0.000000,0.000000
15,-3.000000,0.000000,0.000000
16,-2.500000,0.000000,0.000000
17,-2.000000,0.000000,0.000000
18,-1.500000,0.000000,0.000000
19,-1.000000,0.000000,0.000000
20,-0.500000,0.000000,0.000000
21,0.000000,0.000000,0.000000
22,0.500000,0.000000,0.000000
23,1.000000,0.000000,0.000000
24,1.500000,0.000000,0.000000
25,2.000000,0.000000,0.000000
26,2.500000,0.000000,0.000000
27,3.000000,0.000000,0.000000
28,3.500000,0.000000,0.000000
29,4.000000,0.000000,0.000000
30,4.500000,0.000000,0.000000
31,5.000000,0.000000,0.000000
32,5.500000,0.000000,0.000000
33,6.000000,0.000000,0.000000
34,6.500000,0.000000,0.000000
35,7.000000,0.000000,0.000000
36,7.500000,0.000000,0.000000
37,8.000000,0.000000,0.000000
38,8.500000,0.000000,0.000000
39,9.000000,0.000000,0.000000
40,9.500000,0.000000,0.000000
41,10.000000,0.000000,0.000000
42,-10.000000,0.250000,0.000000
43,-9.500000,0.250000,0.000000
44,-9.000000,0.250000,0.000000
45,-8.500000,0.250000,0.000000
46,-8.000000,0.250000,0.000000
47,-7.500000,0.250000,0.000000
48,-7.000000,0.250000,0.000000
49,-6.500000,0.250000,0.000000
50,-6.000000,0.250000,0.000000
51,-5.500000,0.250000,0.000000
52,-5.000000,0.250000,0.000000
53,-4.500000,0.250000,0.000000
54,-4.000000,0.250000,0.000000
55,-3.500000,0.250000,0.000000
56,-3.000000,0.250000,0.000000
57,-2.500000,0.250000,0.000000
58,-2.000000,0.250000,0.000000
59,-1.500000,0.250000,0.000000
60,-1.000000,0.250000,0.000000
61,-0.500000,0.250000,0.000000
62,0.000000,0.250000,0.000000
63,0.500000,0.250000,0.000000
64,1.000000,0.250000,0.000000
65,1.500000,0.250000,0.000000
66,2.000000,0.250000,0.000000
67,2.500000,0.250000,0.000000
68,3.000000,0.250000,0.000000
69,3.500000,0.250000,0.000000
70,4.000000,0.250000,0.000000
71,4.500000,0.250000,0.000000
72,5.000000,0.250000,0.000000
73,5.500000,0.250000,0.000000
74,6.000000,0.250000,0.000000
75,6.500000,0.250000,0.000000
76,7.000000,0.250000,0.000000
77,7.500000,0.250000,0.000000
78,8.000000,0.250000,0.000000
79,8.500000,0.250000,0.000000
80,9.000000,0.250000,0.000000
81,9.500000,0.250000,0.000000
82,10.000000,0.250000,0.000000
83,-10.000000,0.500000,0.000000
84,-9.500000,0.500000,0.000000
85,-9.000000,0.500000,0.000000
86,-8.500000,0.500000,0.000000
87,-8.000000,0.500000,0.000000
88,-7.500000,0.500000,0.000000
89,-7.000000,0.500000,0.000000
90,-6.500000,0.500000,0.000000
91,-6.000000,0.500000,0.000000
92,-5.500000,0.500000,0.000000
93,-5.000000,0.500000,0.000000
94,-4.500000,0.500000,0.000000
95,-4.000000,0.500000,0.000000
96,-3.500000,0.500000,0.000000
97,-3.000000,0.500000,0.000000
98,-2.500000,0.500000,0.000000
99,-2.000000,0.500000,0.000000
100,-1.500000,0.500000,0.000000
101,-1.000000,0.500000,0.000000
102,-0.500000,0.500000,0.000000
103,0.000000,0.500000,0.000000
104,0.500000,0.500000,0.000000
105,1.000000,0.500000,0.000000
106,1.500000,0.500000,0.000000
107,2.000000,0.500000,0.000000
108,2.500000,0.500000,0.000000
109,3.000000,0.500000,0.000000
110,3.500000,0.500000,0.000000
111,4.000000,0.500000,0.000000
112,4.500000,0.500000,0.000000
113,5.000000,0.500000,0.000000
114,5.500000,0.500000,0.000000
115,6.000000,0.500000,0.000000
116,6.500000,0.500000,0.000000
117,7.000000,0.500000,0.000000
118,7.500000,0.500000,0.000000
119,8.000000,0.500000,0.000000
120,8.500000,0.500000,0.000000
121,9.000000,0.500000,0.000000
122,9.500000,0.500000,0.000000
123,10.000000,0.500000,0.000000
124,-10.000000,0.750000,0.000000
125,-9.500000,0.750000,0.000000
126,-9.000000,0.750000,0.000000
127,-8.500000,0.750000,0.000000
128,-8.000000,0.750000,0.000000
129,-7.500000,0.750000,0.000000
130,-7.000000,0.750000,0.000000
131,-6.500000,0.750000,0.000000
132,-6.000000,0.750000,0.000000
133,-5.500000,0.750000,0.000000
134,-5.000000,0.750000,0.000000
135,-4.500000,0.750000,0.000000
136,-4.000000,0.750000,0.000000
137,-3.500000,0.750000,0.000000
138,-3.000000,0.750000,0.000000
139,-2.500000,0.750000,0.000000
140,-2.000000,0.750000,0.000000
141,-1.500000,0.750000,0.000000
142,-1.000000,0.750000,0.000000
143,-0.500000,0.750000,0.000000
144,0.000000,0.750000,0.000000
145,0.500000,0.750000,0.000000
146,1.000000,0.750000,0.000000
147,1.500000,0.750000,0.000000
148,2.000000,0.750000,0.000000
149,2.500000,0.750000,0.000000
150,3.000000,0.750000,0.000000
151,3.500000,0.750000,0.000000
152,4.000000,0.750000,0.000000
153,4.500000,0.750000,0.000000
154,5.000000,0.750000,0.000000
155,5.500000,0.750000,0.000000
156,6.000000,0.750000,0.000000
157,6.500000,0.750000,0.000000
158,7.000000,0.750000,0.000000
159,7.500000,0.750000,0.000000
160,8.000000,0.750000,0.000000
161,8.500000,0.750000,0.000000
162,9.000000,0.750000,0.000000
163,9.500000,0.750000,0.000000
164,10.000000,0.750000,0.000000
165,-10.000000,1.000000,0.000000
166,-9.500000,1.000000,0.000000
167,-9.000000,1.000000,0.000000
168,-8.500000,1.000000,0.000000
169,-8.000000,1.000000,0.000000
170,-7.500000,1.000000,0.000000
171,-7.000000,1.000000,0.000000
172,-6.500000,1.000000,0.000000
173,-6.000000,1.000000,0.000000
174,-5.500000,1.000000,0.000000
175,-5.000000,1.000000,0.000000
176,-4.500000,1.000000,0.000000
177,-4.000000,1.000000,0.000000
178,-3.500000,1.000000,0.000000
179,-3.000000,1.000000,0.000000
180,-2.500000,1.000000,0.000000
181,-2.000000,1.000000,0.000000
182,-1.500000,1.000000,0.000000
183,-1.000000,1.000000,0.000000
184,-0.500000,1.000000,0.000000
185,0.000000,1.000000,0.000000
186,0.500000,1.000000,0.000000
187,1.000000,1.000000,0.000000
188,1.500000,1.000000,0.000000
189,2.000000,1.000000,0.000000
190,2.500000,1.000000,0.000000
191,3.000000,1.000000,0.000000
192,3.500000,1.000000,0.000000
193,4.000000,1.000000,0.000000
194,4.500000,1.000000,0.000000
195,5.000000,1.000000,0.000000
196,5.500000,1.000000,0.000000
197,6.000000,1.000000,0.000000
198,6.500000,1.000000,0.000000
199,7.000000,1.000000,0.000000
200,7.500000,1.000000,0.000000
201,8.000000,1.000000,0.000000
202,8.500000,1.000000,0.000000
203,9.000000,1.000000,0.000000
204,9.500000,1.000000,0.000000
205,10.000000,1.000000,0.000000
206,-10.000000,1.250000,0.000000
207,-9.500000,1.250000,0.000000
208,-9.000000,1.250000,0.000000
209,-8.500000,1.250000,0.000000
210,-8.000000,1.250000,0.000000
211,-7.500000,1.250000,0.000000
212,-7.000000,1.250000,0.000000
213,-6.500000,1.250000,0.000000
214,-6.000000,1.250000,0.000000
215,-5.500000,1.250000,0.000000
216,-5.000000,1.250000,0.000000
217,-4.500000,1.250000,0.000000
218,-4.000000,1.250000,0.000000
219,-3.500000,1.250000,0.000000
220,-3.000000,1.250000,0.000000
221,-2.500000,1.250000,0.000000
222,-2.000000,1.250000,0.000000
223,-1.500000,1.250000,0.000000
224,-1.000000,1.250000,0.000000
225,-0.500000,1.250000,0.000000
226,0.000000,1.250000,0.000000
227,0.500000,1.250000,0.000000
228,1.000000,1.250000,0.000000
229,1.500000,1.250000,0.000000
230,2.000000,1.250000,0.000000
231,2.500000,1.250000,0.000000
232,3.000000,1.250000,0.000000
233,3.500000,1.250000,0.000000
234,4.000000,1.250000,0.000000
235,4.500000,1.250000,0.000000
236,5.000000,1.250000,0.000000
237,5.500000,1.250000,0.000000
238,6.000000,1.250000,0.000000
239,6.500000,1.250000,0.000000
240,7.000000,1.250000,0.000000
241,7.500000,1.250000,0.000000
242,8.000000,1.250000,0.000000
243,8.500000,1.250000,0.000000
244,9.000000,1.250000,0.000000
245,9.500000,1.250000,0.000000
246,10.000000,1.250000,0.000000
247,-10.000000,1.500000,0.000000
248,-9.500000,1.500000,0.000000
249,-9.000000,1.500000,0.000000
250,-8.500000,1.500000,0.000000
251,-8.000000,1.500000,0.000000
252,-7.500000,1.500000,0.000000
253,-7.000000,1.500000,0.000000
254,-6.500000,1.500000,0.000000
255,-6.000000,1.500000,0.000000
256,-5.500000,1.500000,0.000000
257,-5.000000,1.500000,0.000000
258,-4.500000,1.500000,0.000000
259,-4.000000,1.500000,0.000000
260,-3.500000,1.500000,0.000000
261,-3.000000,1.500000,0.000000
262,-2.500000,1.500000,0.000000
263,-2.000000,1.500000,0.000000
264,-1.500000,1.500000,0.000000
265,-1.000000,1.500000,0.000000
266,-0.500000,1.500000,0.000000
267,0.000000,1.500000,0.000000
268,0.500000,1.500000,0.000000
269,1.000000,1.500000,0.000000
270,1.500000,1.500000,0.000000
271,2.000000,1.500000,0.000000
272,2.500000,1.500000,0.000000
273,3.000000,1.500000,0.000000
274,3.500000,1.500000,0.000000
275,4.000000,1.500000,0.000000
276,4.500000,1.500000,0.000000
277,5.000000,1.500000,0.000000
278,5.500000,1.500000,0.000000
279,6.000000,1.500000,0.000000
280,6.500000,1.500000,0.000000
281,7.000000,1.500000,0.000000
282,7.500000,1.500000,0.000000
283,8.000000,1.500000,0.000000
284,8.500000,1.500000,0.000000
285,9.000000,1.500000,0.000000
286,9.500000,1.500000,0.000000
287,10.000000,1.500000,0.000000
288,-10.000000,0.000000,0.500000
289,-9.500000,0.000000,0.500000
290,-9.000000,0.000000,0.500000
291,-8.500000,0.000000,0.500000
292,-8.000000,0.000000,0.500000
293,-7.500000,0.000000,0.500000
294,-7.000000,0.000000,0.500000
295,-6.500000,0.000000,0.500000
296,-6.000000,0.000000,0.500000
297,-5.500000,0.000000,0.500000
298,-5.000000,0.000000,0.500000
299,-4.500000,0.000000,0.500000
300,-4.000000,0.000000,0.500000
301,-3.500000,0.000000,0.500000
302,-3.000000,0.000000,0.500000
303,-2.500000,0.000000,0.500000
304,-2.000000,0.000000,0.500000
305,-1.500000,0.000000,0.500000
306,-1.000000,0.000000,0.500000
307,-0.500000,0.000000,0.500000
308,0.000000,0.000000,0.500000
309,0.500000,0.000000,0.500000
310,1.000000,0.000000,0.500000
311,1.500000,0.000000,0.500000
312,2.000000,0.000000,0.500000
313,2.500000,0.000000,0.500000
314,3.000000,0.000000,0.500000
315,3.500000,0.000000,0.500000
316,4.000000,0.000000,0.500000
317,4.500000,0.000000,0.500000
318,5.000000,0.000000,0.500000
319,5.500000,0.000000,0.500000
320,6.000000,0.000000,0.500000
321,6.500000,0.000000,0.500000
322,7.000000,0.000000,0.500000
323,7.500000,0.000000,0.500000
324,8.000000,0.000000,0.500000
325,8.500000,0.000000,0.500000
326,9.000000,0.000000,0.500000
327,9.500000,0.000000,0.500000
328,10.000000,0.000000,0.500000
329,-10.000000,0.250000,0.500000
330,-9.500000,0.250000,0.500000
331,-9.000000,0.250000,0.500000
332,-8.500000,0.250000,0.500000
333,-8.000000,0.250000,0.500000
334,-7.500000,0.250000,0.500000
335,-7.000000,0.250000,0.500000
336,-6.500000,0.250000,0.500000
337,-6.000000,0.250000,0.500000
338,-5.500000,0.250000,0.500000
339,-5.000000,0.250000,0.500000
340,-4.500000,0.250000,0.500000
341,-4.000000,0.250000,0.500000
342,-3.500000,0.250000,0.500000
343,-3.000000,0.250000,0.500000
344,-2.500000,0.250000,0.500000
345,-2.000000,0.250000,0.500000
346,-1.500000,0.250000,0.500000
347,-1.000000,0.250000,0.500000
348,-0.500000,0.250000,0.500000
349,0.000000,0.250000,0.500000
350,0.500000,0.250000,0.500000
351,1.000000,0.250000,0.500000
352,1.500000,0.250000,0.500000
353,2.000000,0.250000,0.500000
354,2.500000,0.250000,0.500000
355,3.000000,0.250000,0.500000
356,3.500000,0.250000,0.500000
357,4.000000,0.250000,0.500000
358,4.500000,0.250000,0.500000
359,5.000000,0.250000,0.500000
360,5.500000,0.250000,0.500000
361,6.000000,0.250000,0.500000
362,6.500000,0.250000,0.500000
363,7.000000,0.250000,0.500000
364,7.500000,0.250000,0.500000
365,8.000000,0.250000,0.500000
366,8.500000,0.250000,0.500000
367,9.000000,0.250000,0.500000
368,9.500000,0.250000,0.500000
369,10.000000,0.250000,0.500000
370,-10.000000,0.500000,0.500000
371,-9.500000,0.500000,0.500000
372,-9.000000,0.500000,0.500000
373,-8.500000,0.500000,0.500000
374,-8.000000,0.500000,0.500000
375,-7.500000,0.500000,0.500000
376,-7.000000,0.500000,0.500000
377,-6.500000,0.500000,0.500000
378,-6.000000,0.500000,0.500000
379,-5.500000,0.500000,0.500000
380,-5.000000,0.500000,0.500000
381,-4.500000,0.500000,0.500000
382,-4.000000,0.500000,0.500000
383,-3.500000,0.500000,0.500000
384,-3.000000,0.500000,0.500000
385,-2.500000,0.500000,0.500000
386,-2.000000,0.500000,0.500000
387,-1.500000,0.500000,0.500000
388,-1.000000,0.500000,0.500000
389,-0.500000,0.500000,0.500000
390,0.000000,0.500000,0.500000
391,0.500000,0.500000,0.500000
392,1.000000,0.500000,0.500000
393,1.500000,0.500000,0.500000
394,2.000000,0.500000,0.500000
395,2.500000,0.500000,0.500000
396,3.000000,0.500000,0.500000
397,3.500000,0.500000,0.500000
398,4.000000,0.500000,0.500000
399,4.500000,0.500000,0.500000
400,5.000000,0.500000,0.500000
401,5.500000,0.500000,0.500000
402,6.000000,0.500000,0.500000
403,6.500000,0.500000,0.500000
404,7.000000,0.500000,0.500000
405,7.500000,0.500000,0.500000
406,8.000000,0.500000,0.500000
407,8.500000,0.500000,0.500000
408,9.000000,0.500000,0.500000
409,9.500000,0.500000,0.500000
410,10.000000,0.500000,0.500000
411,-10.000000,0.750000,0.500000
412,-9.500000,0.750000,0.500000
413,-9.000000,0.750000,0.500000
414,-8.500000,0.750000,0.500000
415,-8.000000,0.750000,0.500000
416,-7.500000,0.750000,0.500000
417,-7.000000,0.750000,0.500000
418,-6.500000,0.750000,0.500000
419,-6.000000,0.750000,0.500000
420,-5.500000,0.750000,0.500000
421,-5.000000,0.750000,0.500000
422,-4.500000,0.750000,0.500000
423,-4.000000,0.750000,0.500000
424,-3.500000,0.750000,0.500000
425,-3.000000,0.750000,0.500000
426,-2.500000,0.750000,0.500000
427,-2.000000,0.750000,0.500000
428,-1.500000,0.750000,0.500000
429,-1.000000,0.750000,0.500000
430,-0.500000,0.750000,0.500000
431,0.000000,0.750000,0.500000
432,0.500000,0.750000,0.500000
433,1.000000,0.750000,0.500000
434,1.500000,0.750000,0.500000
435,2.000000,0.750000,0.500000
436,2.500000,0.750000,0.500000
437,3.000000,0.750000,0.500000
438,3.500000,0.750000,0.500000
439,4.000000,0.750000,0.500000
440,4.500000,0.750000,0.500000
441,5.000000,0.750000,0.500000
442,5.500000,0.750000,0.500000
443,6.000000,0.750000,0.500000
444,6.500000,0.750000,0.500000
445,7.000000,0.750000,0.500000
446,7.500000,0.750000,0.500000
447,8.000000,0.750000,0.500000
448,8.500000,0.750000,0.500000
449,9.000000,0.750000,0.500000
450,9.500000,0.750000,0.500000
451,10.000000,0.750000,0.500000
452,-10.000000,1.000000,0.500000
453,-9.500000,1.000000,0.500000
454,-9.000000,1.000000,0.500000
455,-8.500000,1.000000,0.500000
456,-8.000000,1.000000,0.500000
457,-7.500000,1.000000,0.500000
458,-7.000000,1.000000,0.500000
459,-6.500000,1.000000,0.500000
460,-6.000000,1.000000,0.500000
461,-5.500000,1.000000,0.500000
462,-5.000000,1.000000,0.500000
463,-4.500000,1.000000,0.500000
464,-4.000000,1.000000,0.500000
465,-3.500000,1.000000,0.500000
466,-3.000000,1.000000,0.500000
467,-2.500000,1.000000,0.500000
468,-2.000000,1.000000,0.500000
469,-1.500000,1.000000,0.500000
470,-1.000000,1.000000,0.500000
471,-0.500000,1.000000,0.500000
472,0.000000,1.000000,0.500000
473,0.500000,1.000000,0.500000
474,1.000000,1.000000,0.500000
475,1.500000,1.000000,0.500000
476,2.000000,1.000000,0.500000
477,2.500000,1.000000,0.500000
478,3.000000,1.000000,0.500000
479,3.500000,1.000000,0.500000
480,4.000000,1.000000,0.500000
481,4.500000,1.000000,0.500000
482,5.000000,1.000000,0.500000
483,5.500000,1.000000,0.500000
484,6.000000,1.000000,0.500000
485,6.500000,1.000000,0.500000
486,7.000000,1.000000,0.500000
487,7.500000,1.000000,0.500000
488,8.000000,1.000000,0.500000
489,8.500000,1.000000,0.500000
490,9.000000,1.000000,0.500000
491,9.500000,1.000000,0.500000
492,10.000000,1.000000,0.500000
493,-10.000000,1.250000,0.500000
494,-9.500000,1.250000,0.500000
495,-9.000000,1.250000,0.500000
496,-8.500000,1.250000,0.500000
497,-8.000000,1.250000,0.500000
498,-7.500000,1.250000,0.500000
499,-7.000000,1.250000,0.500000
500,-6.500000,1.250000,0.500000
501,-6.000000,1.250000,0.500000
502,-5.500000,1.250000,0.500000
503,-5.000000,1.250000,0.500000
504,-4.500000,1.250000,0.500000
505,-4.000000,1.250000,0.500000
506,-3.500000,1.250000,0.500000
507,-3.000000,1.250000,0.500000
508,-2.500000,1.250000,0.500000
509,-2.000000,1.250000,0.500000
510,-1.500000,1.250000,0.500000
511,-1.000000,1.250000,0.500000
512,-0.500000,1.250000,0.500000
513,0.000000,1.250000,0.500000
514,0.500000,1.250000,0.500000
515,1.000000,1.250000,0.500000
516,1.500000,1.250000,0.500000
517,2.000000,1.250000,0.500000
518,2.500000,1.250000,0.500000
519,3.000000,1.250000,0.500000
520,3.500000,1.250000,0.500000
521,4.000000,1.250000,0.500000
522,4.500000,1.250000,0.500000
523,5.000000,1.250000,0.500000
524,5.500000,1.250000,0.500000
525,6.000000,1.250000,0.500000
526,6.500000,1.250000,0.500000
527,7.000000,1.250000,0.500000
528,7.500000,1.250000,0.500000
529,8.000000,1.250000,0.500000
530,8.500000,1.250000,0.500000
531,9.000000,1.250000,0.500000
532,9.500000,1.250000,0.500000
533,10.000000,1.250000,0.500000
534,-10.000000,1.500000,0.500000
535,-9.500000,1.500000,0.500000
536,-9.000000,1.500000,0.500000
537,-8.500000,1.500000,0.500000
538,-8.000000,1.500000,0.500000
539,-7.500000,1.500000,0.500000
540,-7.000000,1.500000,0.500000
541,-6.500000,1.500000,0.500000
542,-6.000000,1.500000,0.500000
543,-5.500000,1.500000,0.500000
544,-5.000000,1.500000,0.500000
545,-4.500000,1.500000,0.500000
546,-4.000000,1.500000,0.500000
547,-3.500000,1.500000,0.500000
548,-3.000000,1.500000,0.500000
549,-2.500000,1.500000,0.500000
550,-2.000000,1.500000,0.500000
551,-1.500000,1.500000,0.500000
552,-1.000000,1.500000,0.500000
553,-0.500000,1.500000,0.500000
554,0.000000,1.500000,0.500000
555,0.500000,1.500000,0.500000
556,1.000000,1.500000,0.500000
557,1.500000,1.500000,0.500000
558,2.000000,1.500000,0.500000
559,2.500000,1.500000,0.500000
560,3.000000,1.500000,0.500000
561,3.500000,1.500000,0.500000
562,4.000000,1.500000,0.500000
563,4.500000,1.500000,0.500000
564,5.000000,1.500000,0.500000
565,5.500000,1.500000,0.500000
566,6.000000,1.500000,0.500000
567,6.500000,1.500000,0.500000
568,7.000000,1.500000,0.500000
569,7.500000,1.500000,0.500000
570,8.000000,1.500000,0.500000
571,8.500000,1.500000,0.500000
572,9.000000,1.500000,0.500000
573,9.500000,1.500000,0.500000
574,10.000000,1.500000,0.500000
575,-10.000000,0.000000,1.000000
576,-9.500000,0.000000,1.000000
577,-9.000000,0.000000,1.000000
578,-8.500000,0.000000,1.000000
579,-8.000000,0.000000,1.000000
580,-7.500000,0.000000,1.000000
581,-7.000000,0.000000,1.000000
582,-6.500000,0.000000,1.000000
583,-6.000000,0.000000,1.000000
584,-5.500000,0.000000,1.000000
585,-5.000000,0.000000,1.000000
586,-4.500000,0.000000,1.000000
587,-4.000000,0.000000,1.000000
588,-3.500000,0.000000,1.000000
589,-3.000000,0.000000,1.000000
590,-2.500000,0.000000,1.000000
591,-2.000000,0.000000,1.000000
592,-1.500000,0.000000,1.000000
593,-1.000000,0.000000,1.000000
594,-0.500000,0.000000,1.000000
595,0.000000,0.000000,1.000000
596,0.500000,0.000000,1.000000
597,1.000000,0.000000,1.000000
598,1.500000,0.000000,1.000000
599,2.000000,0.000000,1.000000
600,2.500000,0.000000,1.000000
601,3.000000,0.000000,1.000000
602,3.500000,0.000000,1.000000
603,4.000000,0.000000,1.000000
604,4.500000,0.000000,1.000000
605,5.000000,0.000000,1.000000
606,5.500000,0.000000,1.000000
607,6.000000,0.000000,1.000000
608,6.500000,0.000000,1.000000
609,7.000000,0.000000,1.000000
610,7.500000,0.000000,1.000000
611,8.000000,0.000000,1.000000
612,8.500000,0.000000,1.000000
613,9.000000,0.000000,1.000000
614,9.500000,0.000000,1.000000
615,10.000000,0.000000,1.000000
616,-10.000000,0.250000,1.000000
617,-9.500000,0.250000,1.000000
618,-9.000000,0.250000,1.000000
619,-8.500000,0.250000,1.000000
620,-8.000000,0.250000,1.000000
621,-7.500000,0.250000,1.000000
622,-7.000000,0.250000,1.000000
623,-6.500000,0.250000,1.000000
624,-6.000000,0.250000,1.000000
625,-5.500000,0.250000,1.000000
626,-5.000000,0.250000,1.000000
627,-4.500000,0.250000,1.000000
628,-4.000000,0.250000,1.000000
629,-3.500000,0.250000,1.000000
630,-3.000000,0.250000,1.000000
631,-2.500000,0.250000,1.000000
632,-2.000000,0.250000,1.000000
633,-1.500000,0.250000,1.000000
634,-1.000000,0.250000,1.000000
635,-0.500000,0.250000,1.000000
636,0.000000,0.250000,1.000000
637,0.500000,0.250000,1.000000
638,1.000000,0.250000,1.000000
639,1.500000,0.250000,1.000000
640,2.000000,0.250000,1.000000
641,2.500000,0.250000,1.000000
642,3.000000,0.250000,1.000000
643,3.500000,0.250000,1.000000
644,4.000000,0.250000,1.000000
645,4.500000,0.250000,1.000000
646,5.000000,0.250000,1.000000
647,5.500000,0.250000,1.000000
648,6.000000,0.250000,1.000000
649,6.500000,0.250000,1.000000
650,7.000000,0.250000,1.000000
651,7.500000,0.250000,1.000000
652,8.000000,0.250000,1.000000
653,8.500000,0.250000,1.000000
654,9.000000,0.250000,1.000000
655,9.500000,0.250000,1.000000
656,10.000000,0.250000,1.000000
657,-10.000000,0.500000,1.000000
658,-9.500000,0.500000,1.000000
659,-9.000000,0.500000,1.000000
660,-8.500000,0.500000,1.000000
661,-8.000000,0.500000,1.000000
662,-7.500000,0.500000,1.000000
663,-7.000000,0.500000,1.000000
664,-6.500000,0.500000,1.000000
665,-6.000000,0.500000,1.000000
666,-5.500000,0.500000,1.000000
667,-5.000000,0.500000,1.000000
668,-4.500000,0.500000,1.000000
669,-4.000000,0.500000,1.000000
670,-3.500000,0.500000,1.000000
671,-3.000000,0.500000,1.000000
672,-2.500000,0.500000,1.000000
673,-2.000000,0.500000,1.000000
674,-1.500000,0.500000,1.000000
675,-1.000000,0.500000,1.000000
676,-0.500000,0.500000,1.000000
677,0.000000,0.500000,1.000000
678,0.500000,0.500000,1.000000
679,1.000000,0.500000,1.000000
680,1.500000,0.500000,1.000000
681,2.000000,0.500000,1.000000
682,2.500000,0.500000,1.000000
683,3.000000,0.500000,1.000000
684,3.500000,0.500000,1.000000
685,4.000000,0.500000,1.000000
686,4.500000,0.500000,1.000000
687,5.000000,0.500000,1.000000
688,5.500000,0.500000,1.000000
689,6.000000,0.500000,1.000000
690,6.500000,0.500000,1.000000
691,7.000000,0.500000,1.000000
692,7.500000,0.500000,1.000000
693,8.000000,0.500000,1.000000
694,8.500000,0.500000,1.000000
695,9.000000,0.500000,1.000000
696,9.500000,0.500000,1.000000
697,10.000000,0.500000,1.000000
698,-10.000000,0.750000,1.000000
699,-9.500000,0.750000,1.000000
700,-9.000000,0.750000,1.000000
701,-8.500000,0.750000,1.000000
702,-8.000000,0.750000,1.000000
703,-7.500000,0.750000,1.000000
704,-7.000000,0.750000,1.000000
705,-6.500000,0.750000,1.000000
706,-6.000000,0.750000,1.000000
707,-5.500000,0.750000,1.000000
708,-5.000000,0.750000,1.000000
709,-4.500000,0.750000,1.000000
710,-4.000000,0.750000,1.000000
711,-3.500000,0.750000,1.000000
712,-3.000000,0.750000,1.000000
713,-2.500000,0.750000,1.000000
714,-2.000000,0.750000,1.000000
715,-1.500000,0.750000,1.000000
716,-1.000000,0.750000,1.000000
717,-0.500000,0.750000,1.000000
718,0.000000,0.750000,1.000000
719,0.500000,0.750000,1.000000
720,1.000000,0.750000,1.000000
721,1.500000,0.750000,1.000000
722,2.000000,0.750000,1.000000
723,2.500000,0.750000,1.000000
724,3.000000,0.750000,1.000000
725,3.500000,0.750000,1.000000
726,4.000000,0.750000,1.000000
727,4.500000,0.750000,1.000000
728,5.000000,0.750000,1.000000
729,5.500000,0.750000,1.000000
730,6.000000,0.750000,1.000000
731,6.500000,0.750000,1.000000
732,7.000000,0.750000,1.000000
733,7.500000,0.750000,1.000000
734,8.000000,0.750000,1.000000
735,8.500000,0.750000,1.000000
736,9.000000,0.750000,1.000000
737,9.500000,0.750000,1.000000
738,10.000000,0.750000,1.000000
739,-10.000000,1.000000,1.000000
740,-9.500000,1.000000,1.000000
741,-9.000000,1.000000,1.000000
742,-8.500000,1.000000,1.000000
743,-8.000000,1.000000,1.000000
744,-7.500000,1.000000,1.000000
745,-7.000000,1.000000,1.000000
746,-6.500000,1.000000,1.000000
747,-6.000000,1.000000,1.000000
748,-5.500000,1.000000,1.000000
749,-5.000000,1.000000,1.000000
750,-4.500000,1.000000,1.000000
751,-4.000000,1.000000,1.000000
752,-3.500000,1.000000,1.000000
753,-3.000000,1.000000,1.000000
754,-2.500000,1.000000,1.000000
755,-2.000000,1.000000,1.000000
756,-1.500000,1.000000,1.000000
757,-1.000000,1.000000,1.000000
758,-0.500000,1.000000,1.000000
759,0.000000,1.000000,1.000000
760,0.500000,1.000000,1.000000
761,1.000000,1.000000,1.000000
762,1.500000,1.000000,1.000000
763,2.000000,1.000000,1.000000
764,2.500000,1.000000,1.000000
765,3.000000,1.000000,1.000000
766,3.500000,1.000000,1.000000
767,4.000000,1.000000,1.000000
768,4.500000,1.000000,1.000000
769,5.000000,1.000000,1.000000
770,5.500000,1.000000,1.000000
771,6.000000,1.000000,1.000000
772,6.500000,1.000000,1.000000
773,7.000000,1.000000,1.000000
774,7.500000,1.000000,1.000000
775,8.000000,1.000000,1.000000
776,8.500000,1.000000,1.000000
777,9.000000,1.000000,1.000000
778,9.500000,1.000000,1.000000
779,10.000000,1.000000,1.000000
780,-10.000000,1.250000,1.000000
781,-9.500000,1.250000,1.000000
782,-9.000000,1.250000,1.000000
783,-8.500000,1.250000,1.000000
784,-8.000000,1.250000,1.000000
785,-7.500000,1.250000,1.000000
786,-7.000000,1.250000,1.000000
787,-6.500000,1.250000,1.000000
788,-6.000000,1.250000,1.000000
789,-5.500000,1.250000,1.000000
790,-5.000000,1.250000,1.000000
791,-4.500000,1.250000,1.000000
792,-4.000000,1.250000,1.000000
793,-3.500000,1.250000,1.000000
794,-3.000000,1.250000,1.000000
795,-2.500000,1.250000,1.000000
796,-2.000000,1.250000,1.000000
797,-1.500000,1.250000,1.000000
798,-1.000000,1.250000,1.000000
799,-0.500000,1.250000,1.000000
800,0.000000,1.250000,1.000000
801,0.500000,1.250000,1.000000
802,1.000000,1.250000,1.000000
803,1.500000,1.250000,1.000000
804,2.000000,1.250000,1.000000
805,2.500000,1.250000,1.000000
806,3.000000,1.250000,1.000000
807,3.500000,1.250000,1.000000
808,4.000000,1.250000,1.000000
809,4.500000,1.250000,1.000000
810,5.000000,1.250000,1.000000
811,5.500000,1.250000,1.000000
812,6.000000,1.250000,1.000000
813,6.500000,1.250000,1.000000
814,7.000000,1.250000,1.000000
815,7.500000,1.250000,1.000000
816,8.000000,1.250000,1.000000
817,8.500000,1.250000,1.000000
818,9.000000,1.250000,1.000000
819,9.500000,1.250000,1.000000
820,10.000000,1.250000,1.000000
821,-10.000000,1.500000,1.000000
822,-9.500000,1.500000,1.000000
823,-9.000000,1.500000,1.000000
824,-8.500000,1.500000,1.000000
825,-8.000000,1.500000,1.000000
826,-7.500000,1.500000,1.000000
827,-7.000000,1.500000,1.000000
828,-6.500000,1.500000,1.000000
829,-6.000000,1.500000,1.000000
830,-5.500000,1.500000,1.000000
831,-5.000000,1.500000,1.000000
832,-4.500000,1.500000,1.000000
833,-4.000000,1.500000,1.000000
834,-3.500000,1.500000,1.000000
835,-3.000000,1.500000,1.000000
836,-2.500000,1.500000,1.000000
837,-2.000000,1.500000,1.000000
838,-1.500000,1.500000,1.000000
839,-1.000000,1.500000,1.000000
840,-0.500000,1.500000,1.000000
841,0.000000,1.500000,1.000000
842,0.500000,1.500000,1.000000
843,1.000000,1.500000,1.000000
844,1.500000,1.500000,1.000000
845,2.000000,1.500000,1.000000
846,2.500000,1.500000,1.000000
847,3.000000,1.500000,1.000000
848,3.500000,1.500000,1.000000
849,4.000000,1.500000,1.000000
850,4.500000,1.500000,1.000000
851,5.000000,1.500000,1.000000
852,5.500000,1.500000,1.000000
853,6.000000,1.500000,1.000000
854,6.500000,1.500000,1.000000
855,7.000000,1.500000,1.000000
856,7.500000,1.500000,1.000000
857,8.000000,1.500000,1.000000
858,8.500000,1.500000,1.000000
859,9.000000,1.500000,1.000000
860,9.500000,1.500000,1.000000
861,10.000000,1.500000,1.000000
862,-10.000000,0.000000,1.500000
863,-9.500000,0.000000,1.500000
864,-9.000000,0.000000,1.500000
865,-8.500000,0.000000,1.500000
866,-8.000000,0.000000,1.500000
867,-7.500000,0.000000,1.500000
868,-7.000000,0.000000,1.500000
869,-6.500000,0.000000,1.500000
870,-6.000000,0.000000,1.500000
871,-5.500000,0.000000,1.500000
872,-5.000000,0.000000,1.500000
873,-4.500000,0.000000,1.500000
874,-4.000000,0.000000,1.500000
875,-3.500000,0.000000,1.500000
876,-3.000000,0.000000,1.500000
877,-2.500000,0.000000,1.500000
878,-2.000000,0.000000,1.500000
879,-1.500000,0.000000,1.500000
880,-1.000000,0.000000,1.500000
881,-0.500000,0.000000,1.500000
882,0.000000,0.000000,1.500000
883,0.500000,0.000000,1.500000
884,1.000000,0.000000,1.500000
885,1.500000,0.000000,1.500000
886,2.000000,0.000000,1.500000
887,2.500000,0.000000,1.500000
888,3.000000,0.000000,1.500000
889,3.500000,0.000000,1.500000
890,4.000000,0.000000,1.500000
891,4.500000,0.000000,1.500000
892,5.000000,0.000000,1.500000
893,5.500000,0.000000,1.500000
894,6.000000,0.000000,1.500000
895,6.500000,0.000000,1.500000
896,7.000000,0.000000,1.500000
897,7.500000,0.000000,1.500000
898,8.000000,0.000000,1.500000
899,8.500000,0.000000,1.500000
900,9.000000,0.000000,1.500000
901,9.500000,0.000000,1.500000
902,10.000000,0.000000,1.500000
903,-10.000000,0.250000,1.500000
904,-9.500000,0.250000,1.500000
905,-9.000000,0.250000,1.500000
906,-8.500000,0.250000,1.500000
907,-8.000000,0.250000,1.500000
908,-7.500000,0.250000,1.500000
909,-7.000000,0.250000,1.500000
910,-6.500000,0.250000,1.500000
911,-6.000000,0.250000,1.500000
912,-5.500000,0.250000,1.500000
913,-5.000000,0.250000,1.500000
914,-4.500000,0.250000,1.500000
915,-4.000000,0.250000,1.500000
916,-3.500000,0.250000,1.500000
917,-3.000000,0.250000,1.500000
918,-2.500000,0.250000,1.500000
919,-2.000000,0.250000,1.500000
920,-1.500000,0.250000,1.500000
921,-1.000000,0.250000,1.500000
922,-0.500000,0.250000,1.500000
923,0.000000,0.250000,1.500000
924,0.500000,0.250000,1.500000
925,1.000000,0.250000,1.500000
926,1.500000,0.250000,1.500000
927,2.000000,0.250000,1.500000
928,2.500000,0.250000,1.500000
929,3.000000,0.250000,1.500000
930,3.500000,0.250000,1.500000
931,4.000000,0.250000,1.500000
932,4.500000,0.250000,1.500000
933,5.000000,0.250000,1.500000
934,5.500000,0.250000,1.500000
935,6.000000,0.250000,1.500000
936,6.500000,0.250000,1.500000
937,7.000000,0.250000,1.500000
938,7.500000,0.250000,1.500000
939,8.000000,0.250000,1.500000
940,8.500000,0.250000,1.500000
941,9.000000,0.250000,1.500000
942,9.500000,0.250000,1.500000
943,10.000000,0.250000,1.500000
944,-10.000000,0.500000,1.500000
945,-9.500000,0.500000,1.500000
946,-9.000000,0.500000,1.500000
947,-8.500000,0.500000,1.500000
948,-8.000000,0.500000,1.500000
949,-7.500000,0.500000,1.500000
950,-7.000000,0.500000,1.500000
951,-6.500000,0.500000,1.500000
952,-6.000000,0.500000,1.500000
953,-5.500000,0.500000,1.500000
954,-5.000000,0.500000,1.500000
955,-4.500000,0.500000,1.500000
956,-4.000000,0.500000,1.500000
957,-3.500000,0.500000,1.500000
958,-3.000000,0.500000,1.500000
959,-2.500000,0.500000,1.500000
960,-2.000000,0.500000,1.500000
961,-1.500000,0.500000,1.500000
962,-1.000000,0.500000,1.500000
963,-0.500000,0.500000,1.500000
964,0.000000,0.500000,1.500000
965,0.500000,0.500000,1.500000
966,1.000000,0.500000,1.500000
967,1.500000,0.500000,1.500000
968,2.000000,0.500000,1.500000
969,2.500000,0.500000,1.500000
970,3.000000,0.500000,1.500000
971,3.500000,0.500000,1.500000
972,4.000000,0.500000,1.500000
973,4.500000,0.500000,1.500000
974,5.000000,0.500000,1.500000
975,5.500000,0.500000,1.500000
976,6.000000,0.500000,1.500000
977,6.500000,0.500000,1.500000
978,7.000000,0.500000,1.500000
979,7.500000,0.500000,1.500000
980,8.000000,0.500000,1.500000
981,8.500000,0.500000,1.500000
982,9.000000,0.500000,1.500000
983,9.500000,0.500000,1.500000
984,10.000000,0.500000,1.500000
985,-10.000000,0.750000,1.500000
986,-9.500000,0.750000,1.500000
987,-9.000000,0.750000,1.500000
988,-8.500000,0.750000,1.500000
989,-8.000000,0.750000,1.500000
990,-7.500000,0.750000,1.500000
991,-7.000000,0.750000,1.500000
992,-6.500000,0.750000,1.500000
993,-6.000000,0.750000,1.500000
994,-5.500000,0.750000,1.500000
995,-5.000000,0.750000,1.500000
996,-4.500000,0.750000,1.500000
997,-4.000000,0.750000,1.500000
998,-3.500000,0.750000,1.500000
999,-3.000000,0.750000,1.500000
1000,-2.500000,0.750000,1.500000
1001,-2.000000,0.750000,1.500000
1002,-1.500000,0.750000,1.500000
1003,-1.000000,0.750000,1.500000
1004,-0.500000,0.750000,1.500000
1005,0.000000,0.750000,1.500000
1006,0.500000,0.750000,1.500000
1007,1.000000,0.750000,1.500000
1008,1.500000,0.750000,1.500000
1009,2.000000,0.750000,1.500000
1010,2.500000,0.750000,1.500000
1011,3.000000,0.750000,1.500000
1012,3.500000,0.750000,1.500000
1013,4.000000,0.750000,1.500000
1014,4.500000,0.750000,1.500000
1015,5.000000,0.750000,1.500000
1016,5.500000,0.750000,1.500000
1017,6.000000,0.750000,1.500000
1018,6.500000,0.750000,1.500000
1019,7.000000,0.750000,1.500000
1020,7.500000,0.750000,1.500000
1021,8.000000,0.750000,1.500000
1022,8.500000,0.750000,1.500000
1023,9.000000,0.750000,1.500000
1024,9.500000,0.750000,1.500000
1025,10.000000,0.750000,1.500000
1026,-10.000000,1.000000,1.500000
1027,-9.500000,1.000000,1.500000
1028,-9.000000,1.000000,1.500000
1029,-8.500000,1.000000,1.500000
1030,-8.000000,1.000000,1.500000
1031,-7.500000,1.000000,1.500000
1032,-7.000000,1.000000,1.500000
1033,-6.500000,1.000000,1.500000
1034,-6.000000,1.000000,1.500000
1035,-5.500000,1.000000,1.500000
1036,-5.000000,1.000000,1.500000
1037,-4.500000,1.000000,1.500000
1038,-4.000000,1.000000,1.500000
1039,-3.500000,1.000000,1.500000
1040,-3.000000,1.000000,1.500000
1041,-2.500000,1.000000,1.500000
1042,-2.000000,1.000000,1.500000
1043,-1.500000,1.000000,1.500000
1044,-1.000000,1.000000,1.500000
1045,-0.500000,1.000000,1.500000
1046,0.000000,1.000000,1.500000
1047,0.500000,1.000000,1.500000
1048,1.000000,1.000000,1.500000
1049,1.500000,1.000000,1.500000
1050,2.000000,1.000000,1.500000
1051,2.500000,1.000000,1.500000
1052,3.000000,1.000000,1.500000
1053,3.500000,1.000000,1.500000
1054,4.000000,1.000000,1.500000
1055,4.500000,1.000000,1.500000
1056,5.000000,1.000000,1.500000
1057,5.500000,1.000000,1.500000
1058,6.000000,1.000000,1.500000
1059,6.500000,1.000000,1.500000
1060,7.000000,1.000000,1.500000
1061,7.500000,1.000000,1.500000
1062,8.000000,1.000000,1.500000
1063,8.500000,1.000000,1.500000
1064,9.000000,1.000000,1.500000
1065,9.500000,1.000000,1.500000
1066,10.000000,1.000000,1.500000
1067,-10.000000,1.250000,1.500000
1068,-9.500000,1.250000,1.500000
1069,-9.000000,1.250000,1.500000
1070,-8.500000,1.250000,1.500000
1071,-8.000000,1.250000,1.500000
1072,-7.500000,1.250000,1.500000
1073,-7.000000,1.250000,1.500000
1074,-6.500000,1.250000,1.500000
1075,-6.000000,1.250000,1.500000
1076,-5.500000,1.250000,1.500000
1077,-5.000000,1.250000,1.500000
1078,-4.500000,1.250000,1.500000
1079,-4.000000,1.250000,1.500000
1080,-3.500000,1.250000,1.500000
1081,-3.000000,1.250000,1.500000
1082,-2.500000,1.250000,1.500000
1083,-2.000000,1.250000,1.500000
1084,-1.500000,1.250000,1.500000
1085,-1.000000,1.250000,1.500000
1086,-0.500000,1.250000,1.500000
1087,0.000000,1.250000,1.500000
1088,0.500000,1.250000,1.500000
1089,1.000000,1.250000,1.500000
1090,1.500000,1.250000,1.500000
1091,2.000000,1.250000,1.500000
1092,2.500000,1.250000,1.500000
1093,3.000000,1.250000,1.500000
1094,3.500000,1.250000,1.500000
1095,4.000000,1.250000,1.500000
1096,4.500000,1.250000,1.500000
1097,5.000000,1.250000,1.500000
1098,5.500000,1.250000,1.500000
1099,6.000000,1.250000,1.500000
1100,6.500000,1.250000,1.500000
1101,7.000000,1.250000,1.500000
1102,7.500000,1.250000,1.500000
1103,8.000000,1.250000,1.500000
1104,8.500000,1.250000,1.500000
1105,9.000000,1.250000,1.500000
1106,9.500000,1.250000,1.500000
1107,10.000000,1.250000,1.500000
1108,-10.000000,1.500000,1.500000
1109,-9.500000,1.500000,1.500000
1110,-9.000000,1.500000,1.500000
1111,-8.500000,1.500000,1.500000
1112,-8.000000,1.500000,1.500000
1113,-7.500000,1.500000,1.500000
1114,-7.000000,1.500000,1.500000
1115,-6.500000,1.500000,1.500000
1116,-6.000000,1.500000,1.500000
1117,-5.500000,1.500000,1.500000
1118,-5.000000,1.500000,1.500000
1119,-4.500000,1.500000,1.500000
1120,-4.000000,1.500000,1.500000
1121,-3.500000,1.500000,1.500000
1122,-3.000000,1.500000,1.500000
1123,-2.500000,1.500000,1.500000
1124,-2.000000,1.500000,1.500000
1125,-1.500000,1.500000,1.500000
1126,-1.000000,1.500000,1.500000
1127,-0.500000,1.500000,1.500000
1128,0.000000,1.500000,1.500000
1129,0.500000,1.500000,1.500000
1130,1.000000,1.500000,1.500000
1131,1.500000,1.500000,1.500000
1132,2.000000,1.500000,1.500000
1133,2.500000,1.500000,1.500000
1134,3.000000,1.500000,1.500000
1135,3.500000,1.500000,1.500000
1136,4.000000,1.500000,1.500000
1137,4.500000,1.500000,1.500000
1138,5.000000,1.500000,1.500000
1139,5.500000,1.500000,1.500000
1140,6.000000,1.500000,1.500000
1141,6.500000,1.500000,1.500000
1142,7.000000,1.500000,1.500000
1143,7.500000,1.500000,1.500000
1144,8.000000,1.500000,1.500000
1145,8.500000,1.500000,1.500000
1146,9.000000,1.500000,1.500000
1147,9.500000,1.500000,1.500000
1148,10.000000,1.500000,1.500000
1149,-10.000000,0.000000,2.000000
1150,-9.500000,0.000000,2.000000
1151,-9.000000,0.000000,2.000000
1152,-8.500000,0.000000,2.000000
1153,-8.000000,0.000000,2.000000
1154,-7.500000,0.000000,2.000000
1155,-7.000000,0.000000,2.000000
1156,-6.500000,0.000000,2.000000
1157,-6.000000,0.000000,2.000000
1158,-5.500000,0.000000,2.000000
1159,-5.000000,0.000000,2.000000
1160,-4.500000,0.000000,2.000000
1161,-4.000000,0.000000,2.000000
1162,-3.500000,0.000000,2.000000
1163,-3.000000,0.000000,2.000000
1164,-2.500000,0.000000,2.000000
1165,-2.000000,0.000000,2.000000
1166,-1.500000,0.000000,2.000000
1167,-1.000000,0.000000,2.000000
1168,-0.500000,0.000000,2.000000
1169,0.000000,0.000000,2.000000
1170,0.500000,0.000000,2.000000
1171,1.000000,0.000000,2.000000
1172,1.500000,0.000000,2.000000
1173,2.000000,0.000000,2.000000
1174,2.500000,0.000000,2.000000
1175,3.000000,0.000000,2.000000
1176,3.500000,0.000000,2.000000
1177,4.000000,0.000000,2.000000
1178,4.500000,0.000000,2.000000
1179,5.000000,0.000000,2.000000
1180,5.500000,0.000000,2.000000
1181,6.000000,0.000000,2.000000
1182,6.500000,0.000000,2.000000
1183,7.000000,0.000000,2.000000
1184,7.500000,0.000000,2.000000
1185,8.000000,0.000000,2.000000
1186,8.500000,0.000000,2.000000
1187,9.000000,0.000000,2.000000
1188,9.500000,0.000000,2.000000
1189,10.000000,0.000000,2.000000
1190,-10.000000,0.250000,2.000000
1191,-9.500000,0.250000,2.000000
1192,-9.000000,0.250000,2.000000
1193,-8.500000,0.250000,2.000000
1194,-8.000000,0.250000,2.000000
1195,-7.500000,0.250000,2.000000
1196,-7.000000,0.250000,2.000000
1197,-6.500000,0.250000,2.000000
1198,-6.000000,0.250000,2.000000
1199,-5.500000,0.250000,2.000000
1200,-5.000000,0.250000,2.000000
1201,-4.500000,0.250000,2.000000
1202,-4.000000,0.250000,2.000000
1203,-3.500000,0.250000,2.000000
1204,-3.000000,0.250000,2.000000
1205,-2.500000,0.250000,2.000000
1206,-2.000000,0.250000,2.000000
1207,-1.500000,0.250000,2.000000
1208,-1.000000,0.250000,2.000000
1209,-0.500000,0.250000,2.000000
1210,0.000000,0.250000,2.000000
1211,0.500000,0.250000,2.000000
1212,1.000000,0.250000,2.000000
1213,1.500000,0.250000,2.000000
1214,2.000000,0.250000,2.000000
1215,2.500000,0.250000,2.000000
1216,3.000000,0.250000,2.000000
1217,3.500000,0.250000,2.000000
1218,4.000000,0.250000,2.000000
1219,4.500000,0.250000,2.000000
1220,5.000000,0.250000,2.000000
1221,5.500000,0.250000,2.000000
1222,6.000000,0.250000,2.000000
1223,6.500000,0.250000,2.000000
1224,7.000000,0.250000,2.000000
1225,7.500000,0.250000,2.000000
1226,8.000000,0.250000,2.000000
1227,8.500000,0.250000,2.000000
1228,9.000000,0.250000,2.000000
1229,9.500000,0.250000,2.000000
1230,10.000000,0.250000,2.000000
1231,-10.000000,0.500000,2.000000
1232,-9.500000,0.500000,2.000000
1233,-9.000000,0.500000,2.000000
1234,-8.500000,0.500000,2.000000
1235,-8.000000,0.500000,2.000000
1236,-7.500000,0.500000,2.000000
1237,-7.000000,0.500000,2.000000
1238,-6.500000,0.500000,2.000000
1239,-6.000000,0.500000,2.000000
1240,-5.500000,0.500000,2.000000
1241,-5.000000,0.500000,2.000000
1242,-4.500000,0.500000,2.000000
1243,-4.000000,0.500000,2.000000
1244,-3.500000,0.500000,2.000000
1245,-3.000000,0.500000,2.000000
1246,-2.500000,0.500000,2.000000
1247,-2.000000,0.500000,2.000000
1248,-1.500000,0.500000,2.000000
1249,-1.000000,0.500000,2.000000
1250,-0.500000,0.500000,2.000000
1251,0.000000,0.500000,2.000000
1252,0.500000,0.500000,2.000000
1253,1.000000,0.500000,2.000000
1254,1.500000,0.500000,2.000000
1255,2.000000,0.500000,2.000000
1256,2.500000,0.500000,2.000000
1257,3.000000,0.500000,2.000000
1258,3.500000,0.500000,2.000000
1259,4.000000,0.500000,2.000000
1260,4.500000,0.500000,2.000000
1261,5.000000,0.500000,2.000000
1262,5.500000,0.500000,2.000000
1263,6.000000,0.500000,2.000000
1264,6.500000,0.500000,2.000000
1265,7.000000,0.500000,2.000000
1266,7.500000,0.500000,2.000000
1267,8.000000,0.500000,2.000000
1268,8.500000,0.500000,2.000000
1269,9.000000,0.500000,2.000000
1270,9.500000,0.500000,2.000000
1271,10.000000,0.500000,2.000000
1272,-10.000000,0.750000,2.000000
1273,-9.500000,0.750000,2.000000
1274,-9.000000,0.750000,2.000000
1275,-8.500000,0.750000,2.000000
1276,-8.000000,0.750000,2.000000
1277,-7.500000,0.750000,2.000000
1278,-7.000000,0.750000,2.000000
1279,-6.500000,0.750000,2.000000
1280,-6.000000,0.750000,2.000000
1281,-5.500000,0.750000,2.000000
1282,-5.000000,0.750000,2.000000
1283,-4.500000,0.750000,2.000000
1284,-4.000000,0.750000,2.000000
1285,-3.500000,0.750000,2.000000
1286,-3.000000,0.750000,2.000000
1287,-2.500000,0.750000,2.000000
1288,-2.000000,0.750000,2.000000
1289,-1.500000,0.750000,2.000000
1290,-1.000000,0.750000,2.000000
1291,-0.500000,0.750000,2.000000
1292,0.000000,0.750000,2.000000
1293,0.500000,0.750000,2.000000
1294,1.000000,0.750000,2.000000
1295,1.500000,0.750000,2.000000
1296,2.000000,0.750000,2.000000
1297,2.500000,0.750000,2.000000
1298,3.000000,0.750000,2.000000
1299,3.500000,0.750000,2.000000
1300,4.000000,0.750000,2.000000
1301,4.500000,0.750000,2.000000
1302,5.000000,0.750000,2.000000
1303,5.500000,0.750000,2.000000
1304,6.000000,0.750000,2.000000
1305,6.500000,0.750000,2.000000
1306,7.000000,0.750000,2.000000
1307,7.500000,0.750000,2.000000
1308,8.000000,0.750000,2.000000
1309,8.500000,0.750000,2.000000
1310,9.000000,0.750000,2.000000
1311,9.500000,0.750000,2.000000
1312,10.000000,0.750000,2.000000
1313,-10.000000,1.000000,2.000000
1314,-9.500000,1.000000,2.000000
1315,-9.000000,1.000000,2.000000
1316,-8.500000,1.000000,2.000000
1317,-8.000000,1.000000,2.000000
1318,-7.500000,1.000000,2.000000
1319,-7.000000,1.000000,2.000000
1320,-6.500000,1.000000,2.000000
1321,-6.000000,1.000000,2.000000
1322,-5.500000,1.000000,2.000000
1323,-5.000000,1.000000,2.000000
1324,-4.500000,1.000000,2.000000
1325,-4.000000,1.000000,2.000000
1326,-3.500000,1.000000,2.000000
1327,-3.000000,1.000000,2.000000
1328,-2.500000,1.000000,2.000000
1329,-2.000000,1.000000,2.000000
1330,-1.500000,1.000000,2.000000
1331,-1.000000,1.000000,2.000000
1332,-0.500000,1.000000,2.000000
1333,0.000000,1.000000,2.000000
1334,0.500000,1.000000,2.000000
1335,1.000000,1.000000,2.000000
1336,1.500000,1.000000,2.000000
1337,2.000000,1.000000,2.000000
1338,2.500000,1.000000,2.000000
1339,3.000000,1.000000,2.000000
1340,3.500000,1.000000,2.000000
1341,4.000000,1.000000,2.000000
1342,4.500000,1.000000,2.000000
1343,5.000000,1.000000,2.000000
1344,5.500000,1.000000,2.000000
1345,6.000000,1.000000,2.000000
1346,6.500000,1.000000,2.000000
1347,7.000000,1.000000,2.000000
1348,7.500000,1.000000,2.000000
1349,8.000000,1.000000,2.000000
1350,8.500000,1.000000,2.000000
1351,9.000000,1.000000,2.000000
1352,9.500000,1.000000,2.000000
1353,10.000000,1.000000,2.000000
1354,-10.000000,1.250000,2.000000
1355,-9.500000,1.250000,2.000000
1356,-9.000000,1.250000,2.000000
1357,-8.500000,1.250000,2.000000
1358,-8.000000,1.250000,2.000000
1359,-7.500000,1.250000,2.000000
1360,-7.000000,1.250000,2.000000
1361,-6.500000,1.250000,2.000000
1362,-6.000000,1.250000,2.000000
1363,-5.500000,1.250000,2.000000
1364,-5.000000,1.250000,2.000000
1365,-4.500000,1.250000,2.000000
1366,-4.000000,1.250000,2.000000
1367,-3.500000,1.250000,2.000000
1368,-3.000000,1.250000,2.000000
1369,-2.500000,1.250000,2.000000
1370,-2.000000,1.250000,2.000000
1371,-1.500000,1.250000,2.000000
1372,-1.000000,1.250000,2.000000
1373,-0.500000,1.250000,2.000000
1374,0.000000,1.250000,2.000000
1375,0.500000,1.250000,2.000000
1376,1.000000,1.250000,2.000000
1377,1.500000,1.250000,2.000000
1378,2.000000,1.250000,2.000000
1379,2.500000,1.250000,2.000000
1380,3.000000,1.250000,2.000000
1381,3.500000,1.250000,2.000000
1382,4.000000,1.250000,2.000000
1383,4.500000,1.250000,2.000000
1384,5.000000,1.250000,2.000000
1385,5.500000,1.250000,2.000000
1386,6.000000,1.250000,2.000000
1387,6.500000,1.250000,2.000000
1388,7.000000,1.250000,2.000000
1389,7.500000,1.250000,2.000000
1390,8.000000,1.250000,2.000000
1391,8.500000,1.250000,2.000000
1392,9.000000,1.250000,2.000000
1393,9.500000,1.250000,2.000000
1394,10.000000,1.250000,2.000000
1395,-10.000000,1.500000,2.000000
1396,-9.500000,1.500000,2.000000
1397,-9.000000,1.500000,2.000000
1398,-8.500000,1.500000,2.000000
1399,-8.000000,1.500000,2.000000
1400,-7.500000,1.500000,2.000000
1401,-7.000000,1.500000,2.000000
1402,-6.500000,1.500000,2.000000
1403,-6.000000,1.500000,2.000000
1404,-5.500000,1.500000,2.000000
1405,-5.000000,1.500000,2.000000
1406,-4.500000,1.500000,2.000000
1407,-4.000000,1.500000,2.000000
1408,-3.500000,1.500000,2.000000
1409,-3.000000,1.500000,2.000000
1410,-2.500000,1.500000,2.000000
1411,-2.000000,1.500000,2.000000
1412,-1.500000,1.500000,2.000000
1413,-1.000000,1.500000,2.000000
1414,-0.500000,1.500000,2.000000
1415,0.000000,1.500000,2.000000
1416,0.500000,1.500000,2.000000
1417,1.000000,1.500000,2.000000
1418,1.500000,1.500000,2.000000
1419,2.000000,1.500000,2.000000
1420,2.500000,1.500000,2.000000
1421,3.000000,1.500000,2.000000
1422,3.500000,1.500000,2.000000
1423,4.000000,1.500000,2.000000
1424,4.500000,1.500000,2.000000
1425,5.000000,1.500000,2.000000
1426,5.500000,1.500000,2.000000
1427,6.000000,1.500000,2.000000
1428,6.500000,1.500000,2.000000
1429,7.000000,1.500000,2.000000
1430,7.500000,1.500000,2.000000
1431,8.000000,1.500000,2.000000
1432,8.500000,1.500000,2.000000
1433,9.000000,1.500000,2.000000
1434,9.500000,1.500000,2.000000
1435,10.000000,1.500000,2.000000
1436,-10.000000,0.000000,2.500000
1437,-9.500000,0.000000,2.500000
1438,-9.000000,0.000000,2.500000
1439,-8.500000,0.000000,2.500000
1440,-8.000000,0.000000,2.500000
1441,-7.500000,0.000000,2.500000
1442,-7.000000,0.000000,2.500000
1443,-6.500000,0.000000,2.500000
1444,-6.000000,0.000000,2.500000
1445,-5.500000,0.000000,2.500000
1446,-5.000000,0.000000,2.500000
1447,-4.500000,0.000000,2.500000
1448,-4.000000,0.000000,2.500000
1449,-3.500000,0.000000,2.500000
1450,-3.000000,0.000000,2.500000
1451,-2.500000,0.000000,2.500000
1452,-2.000000,0.000000,2.500000
1453,-1.500000,0.000000,2.500000
1454,-1.000000,0.000000,2.500000
1455,-0.500000,0.000000,2.500000
1456,0.000000,0.000000,2.500000
1457,0.500000,0.000000,2.500000
1458,1.000000,0.000000,2.500000
1459,1.500000,0.000000,2.500000
1460,2.000000,0.000000,2.500000
1461,2.500000,0.000000,2.500000
1462,3.000000,0.000000,2.500000
1463,3.500000,0.000000,2.500000
1464,4.000000,0.000000,2.500000
1465,4.500000,0.000000,2.500000
1466,5.000000,0.000000,2.500000
1467,5.500000,0.000000,2.500000
1468,6.000000,0.000000,2.500000
1469,6.500000,0.000000,2.500000
1470,7.000000,0.000000,2.500000
1471,7.500000,0.000000,2.500000
1472,8.000000,0.000000,2.500000
1473,8.500000,0.000000,2.500000
1474,9.000000,0.000000,2.500000
1475,9.500000,0.000000,2.500000
1476,10.000000,0.000000,2.500000
1477,-10.000000,0.250000,2.500000
1478,-9.500000,0.250000,2.500000
1479,-9.000000,0.250000,2.500000
1480,-8.500000,0.250000,2.500000
1481,-8.000000,0.250000,2.500000
1482,-7.500000,0.250000,2.500000
1483,-7.000000,0.250000,2.500000
1484,-6.500000,0.250000,2.500000
1485,-6.000000,0.250000,2.500000
1486,-5.500000,0.250000,2.500000
1487,-5.000000,0.250000,2.500000
1488,-4.500000,0.250000,2.500000
1489,-4.000000,0.250000,2.500000
1490,-3.500000,0.250000,2.500000
1491,-3.000000,0.250000,2.500000
1492,-2.500000,0.250000,2.500000
1493,-2.000000,0.250000,2.500000
1494,-1.500000,0.250000,2.500000
1495,-1.000000,0.250000,2.500000
1496,-0.500000,0.250000,2.500000
1497,0.000000,0.250000,2.500000
1498,0.500000,0.250000,2.500000
1499,1.000000,0.250000,2.500000
1500,1.500000,0.250000,2.500000
1501,2.000000,0.250000,2.500000
1502,2.500000,0.250000,2.500000
1503,3.000000,0.250000,2.500000
1504,3.500000,0.250000,2.500000
1505,4.000000,0.250000,2.500000
1506,4.500000,0.250000,2.500000
1507,5.000000,0.250000,2.500000
1508,5.500000,0.250000,2.500000
1509,6.000000,0.250000,2.500000
1510,6.500000,0.250000,2.500000
1511,7.000000,0.250000,2.500000
1512,7.500000,0.250000,2.500000
1513,8.000000,0.250000,2.500000
1514,8.500000,0.250000,2.500000
1515,9.000000,0.250000,2.500000
1516,9.500000,0.250000,2.500000
1517,10.000000,0.250000,2.500000
1518,-10.000000,0.500000,2.500000
1519,-9.500000,0.500000,2.500000
1520,-9.000000,0.500000,2.500000
1521,-8.500000,0.500000,2.500000
1522,-8.000000,0.500000,2.500000
1523,-7.500000,0.500000,2.500000
1524,-7.000000,0.500000,2.500000
1525,-6.500000,0.500000,2.500000
1526,-6.000000,0.500000,2.500000
1527,-5.500000,0.500000,2.500000
1528,-5.000000,0.500000,2.500000
1529,-4.500000,0.500000,2.500000
1530,-4.000000,0.500000,2.500000
1531,-3.500000,0.500000,2.500000
1532,-3.000000,0.500000,2.500000
1533,-2.500000,0.500000,2.500000
1534,-2.000000,0.500000,2.500000
1535,-1.500000,0.500000,2.500000
1536,-1.000000,0.500000,2.500000
1537,-0.500000,0.500000,2.500000
1538,0.000000,0.500000,2.500000
1539,0.500000,0.500000,2.500000
1540,1.000000,0.500000,2.500000
1541,1.500000,0.500000,2.500000
1542,2.000000,0.500000,2.500000
1543,2.500000,0.500000,2.500000
1544,3.000000,0.500000,2.500000
1545,3.500000,0.500000,2.500000
1546,4.000000,0.500000,2.500000
1547,4.500000,0.500000,2.500000
1548,5.000000,0.500000,2.500000
1549,5.500000,0.500000,2.500000
1550,6.000000,0.500000,2.500000
1551,6.500000,0.500000,2.500000
1552,7.000000,0.500000,2.500000
1553,7.500000,0.500000,2.500000
1554,8.000000,0.500000,2.500000
1555,8.500000,0.500000,2.500000
1556,9.000000,0.500000,2.500000
1557,9.500000,0.500000,2.500000
1558,10.000000,0.500000,2.500000
1559,-10.000000,0.750000,2.500000
1560,-9.500000,0.750000,2.500000
1561,-9.000000,0.750000,2.500000
1562,-8.500000,0.750000,2.500000
1563,-8.000000,0.750000,2.500000
1564,-7.500000,0.750000,2.500000
1565,-7.000000,0.750000,2.500000
1566,-6.500000,0.750000,2.500000
1567,-6.000000,0.750000,2.500000
1568,-5.500000,0.750000,2.500000
1569,-5.000000,0.750000,2.500000
1570,-4.500000,0.750000,2.500000
1571,-4.000000,0.750000,2.500000
1572,-3.500000,0.750000,2.500000
1573,-3.000000,0.750000,2.500000
1574,-2.500000,0.750000,2.500000
1575,-2.000000,0.750000,2.500000
1576,-1.500000,0.750000,2.500000
1577,-1.000000,0.750000,2.500000
1578,-0.500000,0.750000,2.500000
1579,0.000000,0.750000,2.500000
1580,0.500000,0.750000,2.500000
1581,1.000000,0.750000,2.500000
1582,1.500000,0.750000,2.500000
1583,2.000000,0.750000,2.500000
1584,2.500000,0.750000,2.500000
1585,3.000000,0.750000,2.500000
1586,3.500000,0.750000,2.500000
1587,4.000000,0.750000,2.500000
1588,4.500000,0.750000,2.500000
1589,5.000000,0.750000,2.500000
1590,5.500000,0.750000,2.500000
1591,6.000000,0.750000,2.500000
1592,6.500000,0.750000,2.500000
1593,7.000000,0.750000,2.500000
1594,7.500000,0.750000,2.500000
1595,8.000000,0.750000,2.500000
1596,8.500000,0.750000,2.500000
1597,9.000000,0.750000,2.500000
1598,9.500000,0.750000,2.500000
1599,10.000000,0.750000,2.500000
1600,-10.000000,1.000000,2.500000
1601,-9.500000,1.000000,2.500000
1602,-9.000000,1.000000,2.500000
1603,-8.500000,1.000000,2.500000
1604,-8.000000,1.000000,2.500000
1605,-7.500000,1.000000,2.500000
1606,-7.000000,1.000000,2.500000
1607,-6.500000,1.000000,2.500000
1608,-6.000000,1.000000,2.500000
1609,-5.500000,1.000000,2.500000
1610,-5.000000,1.000000,2.500000
1611,-4.500000,1.000000,2.500000
1612,-4.000000,1.000000,2.500000
1613,-3.500000,1.000000,2.500000
1614,-3.000000,1.000000,2.500000
1615,-2.500000,1.000000,2.500000
1616,-2.000000,1.000000,2.500000
1617,-1.500000,1.000000,2.500000
1618,-1.000000,1.000000,2.500000
1619,-0.500000,1.000000,2.500000
1620,0.000000,1.000000,2.500000
1621,0.500000,1.000000,2.500000
1622,1.000000,1.000000,2.500000
1623,1.500000,1.000000,2.500000
1624,2.000000,1.000000,2.500000
1625,2.500000,1.000000,2.500000
1626,3.000000,1.000000,2.500000
1627,3.500000,1.000000,2.500000
1628,4.000000,1.000000,2.500000
1629,4.500000,1.000000,2.500000
1630,5.000000,1.000000,2.500000
1631,5.500000,1.000000,2.500000
1632,6.000000,1.000000,2.500000
1633,6.500000,1.000000,2.500000
1634,7.000000,1.000000,2.500000
1635,7.500000,1.000000,2.500000
1636,8.000000,1.000000,2.500000
1637,8.500000,1.000000,2.500000
1638,9.000000,1.000000,2.500000
1639,9.500000,1.000000,2.500000
1640,10.000000,1.000000,2.500000
1641,-10.000000,1.250000,2.500000
1642,-9.500000,1.250000,2.500000
1643,-9.000000,1.250000,2.500000
1644,-8.500000,1.250000,2.500000
1645,-8.000000,1.250000,2.500000
1646,-7.500000,1.250000,2.500000
1647,-7.000000,1.250000,2.500000
1648,-6.500000,1.250000,2.500000
1649,-6.000000,1.250000,2.500000
1650,-5.500000,1.250000,2.500000
1651,-5.000000,1.250000,2.500000
1652,-4.500000,1.250000,2.500000
1653,-4.000000,1.250000,2.500000
1654,-3.500000,1.250000,2.500000
1655,-3.000000,1.250000,2.500000
1656,-2.500000,1.250000,2.500000
1657,-2.000000,1.250000,2.500000
1658,-1.500000,1.250000,2.500000
1659,-1.000000,1.250000,2.500000
1660,-0.500000,1.250000,2.500000
1661,0.000000,1.250000,2.500000
1662,0.500000,1.250000,2.500000
1663,1.000000,1.250000,2.500000
1664,1.500000,1.250000,2.500000
1665,2.000000,1.250000,2.500000
1666,2.500000,1.250000,2.500000
1667,3.000000,1.250000,2.500000
1668,3.500000,1.250000,2.500000
1669,4.000000,1.250000,2.500000
1670,4.500000,1.250000,2.500000
1671,5.000000,1.250000,2.500000
1672,5.500000,1.250000,2.500000
1673,6.000000,1.250000,2.500000
1674,6.500000,1.250000,2.500000
1675,7.000000,1.250000,2.500000
1676,7.500000,1.250000,2.500000
1677,8.000000,1.250000,2.500000
1678,8.500000,1.250000,2.500000
1679,9.000000,1.250000,2.500000
1680,9.500000,1.250000,2.500000
1681,10.000000,1.250000,2.500000
1682,-10.000000,1.500000,2.500000
1683,-9.500000,1.500000,2.500000
1684,-9.000000,1.500000,2.500000
1685,-8.500000,1.500000,2.500000
1686,-8.000000,1.500000,2.500000
1687,-7.500000,1.500000,2.500000
1688,-7.000000,1.500000,2.500000
1689,-6.500000,1.500000,2.500000
1690,-6.000000,1.500000,2.500000
1691,-5.500000,1.500000,2.500000
1692,-5.000000,1.500000,2.500000
1693,-4.500000,1.500000,2.500000
1694,-4.000000,1.500000,2.500000
1695,-3.500000,1.500000,2.500000
1696,-3.000000,1.500000,2.500000
1697,-2.500000,1.500000,2.500000
1698,-2.000000,1.500000,2.500000
1699,-1.500000,1.500000,2.500000
1700,-1.000000,1.500000,2.500000
1701,-0.500000,1.500000,2.500000
1702,0.000000,1.500000,2.500000
1703,0.500000,1.500000,2.500000
1704,1.000000,1.500000,2.500000
1705,1.500000,1.500000,2.500000
1706,2.000000,1.500000,2.500000
1707,2.500000,1.500000,2.500000
1708,3.000000,1.500000,2.500000
1709,3.500000,1.500000,2.500000
1710,4.000000,1.500000,2.500000
1711,4.500000,1.500000,2.500000
1712,5.000000,1.500000,2.500000
1713,5.500000,1.500000,2.500000
1714,6.000000,1.500000,2.500000
1715,6.500000,1.500000,2.500000
1716,7.000000,1.500000,2.500000
1717,7.500000,1.500000,2.500000
1718,8.000000,1.500000,2.500000
1719,8.500000,1.500000,2.500000
1720,9.000000,1.500000,2.500000
1721,9.500000,1.500000,2.500000
1722,10.000000,1.500000,2.500000
1723,-10.000000,0.000000,3.000000
1724,-9.500000,0.000000,3.000000
1725,-9.000000,0.000000,3.000000
1726,-8.500000,0.000000,3.000000
1727,-8.000000,0.000000,3.000000
1728,-7.500000,0.000000,3.000000
1729,-7.000000,0.000000,3.000000
1730,-6.500000,0.000000,3.000000
1731,-6.000000,0.000000,3.000000
1732,-5.500000,0.000000,3.000000
1733,-5.000000,0.000000,3.000000
1734,-4.500000,0.000000,3.000000
1735,-4.000000,0.000000,3.000000
1736,-3.500000,0.000000,3.000000
1737,-3.000000,0.000000,3.000000
1738,-2.500000,0.000000,3.000000
1739,-2.000000,0.000000,3.000000
1740,-1.500000,0.000000,3.000000
1741,-1.000000,0.000000,3.000000
1742,-0.500000,0.000000,3.000000
1743,0.000000,0.000000,3.000000
1744,0.500000,0.000000,3.000000
1745,1.000000,0.000000,3.000000
1746,1.500000,0.000000,3.000000
1747,2.000000,0.000000,3.000000
1748,2.500000,0.000000,3.000000
1749,3.000000,0.000000,3.000000
1750,3.500000,0.000000,3.000000
1751,4.000000,0.000000,3.000000
1752,4.500000,0.000000,3.000000
1753,5.000000,0.000000,3.000000
1754,5.500000,0.000000,3.000000
1755,6.000000,0.000000,3.000000
1756,6.500000,0.000000,3.000000
1757,7.000000,0.000000,3.000000
1758,7.500000,0.000000,3.000000
1759,8.000000,0.000000,3.000000
1760,8.500000,0.000000,3.000000
1761,9.000000,0.000000,3.000000
1762,9.500000,0.000000,3.000000
1763,10.000000,0.000000,3.000000
1764,-10.000000,0.250000,3.000000
1765,-9.500000,0.250000,3.000000
1766,-9.000000,0.250000,3.000000
1767,-8.500000,0.250000,3.000000
1768,-8.000000,0.250000,3.000000
1769,-7.500000,0.250000,3.000000
1770,-7.000000,0.250000,3.000000
1771,-6.500000,0.250000,3.000000
1772,-6.000000,0.250000,3.000000
1773,-5.500000,0.250000,3.000000
1774,-5.000000,0.250000,3.000000
1775,-4.500000,0.250000,3.000000
1776,-4.000000,0.250000,3.000000
1777,-3.500000,0.250000,3.000000
1778,-3.000000,0.250000,3.000000
1779,-2.500000,0.250000,3.000000
1780,-2.000000,0.250000,3.000000
1781,-1.500000,0.250000,3.000000
1782,-1.000000,0.250000,3.000000
1783,-0.500000,0.250000,3.000000
1784,0.000000,0.250000,3.000000
1785,0.500000,0.250000,3.000000
1786,1.000000,0.250000,3.000000
1787,1.500000,0.250000,3.000000
1788,2.000000,0.250000,3.000000
1789,2.500000,0.250000,3.000000
1790,3.000000,0.250000,3.000000
1791,3.500000,0.250000,3.000000
1792,4.000000,0.250000,3.000000
1793,4.500000,0.250000,3.000000
1794,5.000000,0.250000,3.000000
1795,5.500000,0.250000,3.000000
1796,6.000000,0.250000,3.000000
1797,6.500000,0.250000,3.000000
1798,7.000000,0.250000,3.000000
1799,7.500000,0.250000,3.000000
1800,8.000000,0.250000,3.000000
1801,8.500000,0.250000,3.000000
1802,9.000000,0.250000,3.000000
1803,9.500000,0.250000,3.000000
1804,10.000000,0.250000,3.000000
1805,-10.000000,0.500000,3.000000
1806,-9.500000,0.500000,3.000000
1807,-9.000000,0.500000,3.000000
1808,-8.500000,0.500000,3.000000
1809,-8.000000,0.500000,3.000000
1810,-7.500000,0.500000,3.000000
1811,-7.000000,0.500000,3.000000
1812,-6.500000,0.500000,3.000000
1813,-6.000000,0.500000,3.000000
1814,-5.500000,0.500000,3.000000
1815,-5.000000,0.500000,3.000000
1816,-4.500000,0.500000,3.000000
1817,-4.000000,0.500000,3.000000
1818,-3.500000,0.500000,3.000000
1819,-3.000000,0.500000,3.000000
1820,-2.500000,0.500000,3.000000
1821,-2.000000,0.500000,3.000000
1822,-1.500000,0.500000,3.000000
1823,-1.000000,0.500000,3.000000
1824,-0.500000,0.500000,3.000000
1825,0.000000,0.500000,3.000000
1826,0.500000,0.500000,3.000000
1827,1.000000,0.500000,3.000000
1828,1.500000,0.500000,3.000000
1829,2.000000,0.500000,3.000000
1830,2.500000,0.500000,3.000000
1831,3.000000,0.500000,3.000000
1832,3.500000,0.500000,3.000000
1833,4.000000,0.500000,3.000000
1834,4.500000,0.500000,3.000000
1835,5.000000,0.500000,3.000000
1836,5.500000,0.500000,3.000000
1837,6.000000,0.500000,3.000000
1838,6.500000,0.500000,3.000000
1839,7.000000,0.500000,3.000000
1840,7.500000,0.500000,3.000000
1841,8.000000,0.500000,3.000000
1842,8.500000,0.500000,3.000000
1843,9.000000,0.500000,3.000000
1844,9.500000,0.500000,3.000000
1845,10.000000,0.500000,3.000000
1846,-10.000000,0.750000,3.000000
1847,-9.500000,0.750000,3.000000
1848,-9.000000,0.750000,3.000000
1849,-8.500000,0.750000,3.000000
1850,-8.000000,0.750000,3.000000
1851,-7.500000,0.750000,3.000000
1852,-7.000000,0.750000,3.000000
1853,-6.500000,0.750000,3.000000
1854,-6.000000,0.750000,3.000000
1855,-5.500000,0.750000,3.000000
1856,-5.000000,0.750000,3.000000
1857,-4.500000,0.750000,3.000000
1858,-4.000000,0.750000,3.000000
1859,-3.500000,0.750000,3.000000
1860,-3.000000,0.750000,3.000000
1861,-2.500000,0.750000,3.000000
1862,-2.000000,0.750000,3.000000
1863,-1.500000,0.750000,3.000000
1864,-1.000000,0.750000,3.000000
1865,-0.500000,0.750000,3.000000
1866,0.000000,0.750000,3.000000
1867,0.500000,0.750000,3.000000
1868,1.000000,0.750000,3.000000
1869,1.500000,0.750000,3.000000
1870,2.000000,0.750000,3.000000
1871,2.500000,0.750000,3.000000
1872,3.000000,0.750000,3.000000
1873,3.500000,0.750000,3.000000
1874,4.000000,0.750000,3.000000
1875,4.500000,0.750000,3.000000
1876,5.000000,0.750000,3.000000
1877,5.500000,0.750000,3.000000
1878,6.000000,0.750000,3.000000
1879,6.500000,0.750000,3.000000
1880,7.000000,0.750000,3.000000
1881,7.500000,0.750000,3.000000
1882,8.000000,0.750000,3.000000
1883,8.500000,0.750000,3.000000
1884,9.000000,0.750000,3.000000
1885,9.500000,0.750000,3.000000
1886,10.000000,0.750000,3.000000
1887,-10.000000,1.000000,3.000000
1888,-9.500000,1.000000,3.000000
1889,-9.000000,1.000000,3.000000
1890,-8.500000,1.000000,3.000000
1891,-8.000000,1.000000,3.000000
1892,-7.500000,1.000000,3.000000
1893,-7.000000,1.000000,3.000000
1894,-6.500000,1.000000,3.000000
1895,-6.000000,1.000000,3.000000
1896,-5.500000,1.000000,3.000000
1897,-5.000000,1.000000,3.000000
1898,-4.500000,1.000000,3.000000
1899,-4.000000,1.000000,3.000000
1900,-3.500000,1.000000,3.000000
1901,-3.000000,1.000000,3.000000
1902,-2.500000,1.000000,3.000000
1903,-2.000000,1.000000,3.000000
1904,-1.500000,1.000000,3.000000
1905,-1.000000,1.000000,3.000000
1906,-0.500000,1.000000,3.000000
1907,0.000000,1.000000,3.000000
1908,0.500000,1.000000,3.000000
1909,1.000000,1.000000,3.000000
1910,1.500000,1.000000,3.000000
1911,2.000000,1.000000,3.000000
1912,2.500000,1.000000,3.000000
1913,3.000000,1.000000,3.000000
1914,3.500000,1.000000,3.000000
1915,4.000000,1.000000,3.000000
1916,4.500000,1.000000,3.000000
1917,5.000000,1.000000,3.000000
1918,5.500000,1.000000,3.000000
1919,6.000000,1.000000,3.000000
1920,6.500000,1.000000,3.000000
1921,7.000000,1.000000,3.000000
1922,7.500000,1.000000,3.000000
1923,8.000000,1.000000,3.000000
1924,8.500000,1.000000,3.000000
1925,9.000000,1.000000,3.000000
1926,9.500000,1.000000,3.000000
1927,10.000000,1.000000,3.000000
1928,-10.000000,1.250000,3.000000
1929,-9.500000,1.250000,3.000000
1930,-9.000000,1.250000,3.000000
1931,-8.500000,1.250000,3.000000
1932,-8.000000,1.250000,3.000000
1933,-7.500000,1.250000,3.000000
1934,-7.000000,1.250000,3.000000
1935,-6.500000,1.250000,3.000000
1936,-6.000000,1.250000,3.000000
1937,-5.500000,1.250000,3.000000
1938,-5.000000,1.250000,3.000000
1939,-4.500000,1.250000,3.000000
1940,-4.000000,1.250000,3.000000
1941,-3.500000,1.250000,3.000000
1942,-3.000000,1.250000,3.000000
1943,-2.500000,1.250000,3.000000
1944,-2.000000,1.250000,3.000000
1945,-1.500000,1.250000,3.000000
1946,-1.000000,1.250000,3.000000
1947,-0.500000,1.250000,3.000000
1948,0.000000,1.250000,3.000000
1949,0.500000,1.250000,3.000000
1950,1.000000,1.250000,3.000000
1951,1.500000,1.250000,3.000000
1952,2.000000,1.250000,3.000000
1953,2.500000,1.250000,3.000000
1954,3.000000,1.250000,3.000000
1955,3.500000,1.250000,3.000000
1956,4.000000,1.250000,3.000000
1957,4.500000,1.250000,3.000000
1958,5.000000,1.250000,3.000000
1959,5.500000,1.250000,3.000000
1960,6.000000,1.250000,3.000000
1961,6.500000,1.250000,3.000000
1962,7.000000,1.250000,3.000000
1963,7.500000,1.250000,3.000000
1964,8.000000,1.250000,3.000000
1965,8.500000,1.250000,3.000000
1966,9.000000,1.250000,3.000000
1967,9.500000,1.250000,3.000000
1968,10.000000,1.250000,3.000000
1969,-10.000000,1.500000,3.000000
1970,-9.500000,1.500000,3.000000
1971,-9.000000,1.500000,3.000000
1972,-8.500000,1.500000,3.000000
1973,-8.000000,1.500000,3.000000
1974,-7.500000,1.500000,3.000000
1975,-7.000000,1.500000,3.000000
1976,-6.500000,1.500000,3.000000
1977,-6.000000,1.500000,3.000000
1978,-5.500000,1.500000,3.000000
1979,-5.000000,1.500000,3.000000
1980,-4.500000,1.500000,3.000000
1981,-4.000000,1.500000,3.000000
1982,-3.500000,1.500000,3.000000
1983,-3.000000,1.500000,3.000000
1984,-2.500000,1.500000,3.000000
1985,-2.000000,1.500000,3.000000
1986,-1.500000,1.500000,3.000000
1987,-1.000000,1.500000,3.000000
1988,-0.500000,1.500000,3.000000
1989,0.000000,1.500000,3.000000
1990,0.500000,1.500000,3.000000
1991,1.000000,1.500000,3.000000
1992,1.500000,1.500000,3.000000
1993,2.000000,1.500000,3.000000
1994,2.500000,1.500000,3.000000
1995,3.000000,1.500000,3.000000
1996,3.500000,1.500000,3.000000
1997,4.000000,1.500000,3.000000
1998,4.500000,1.500000,3.000000
1999,5.000000,1.500000,3.000000
2000,5.500000,1.500000,3.000000
2001,6.000000,1.500000,3.000000
2002,6.500000,1.500000,3.000000
2003,7.000000,1.500000,3.000000
2004,7.500000,1.500000,3.000000
2005,8.000000,1.500000,3.000000
2006,8.500000,1.500000,3.000000
2007,9.000000,1.500000,3.000000
2008,9.500000,1.500000,3.000000
2009,10.000000,1.500000,3.000000
2010,-10.000000,0.000000,3.500000
2011,-9.500000,0.000000,3.500000
2012,-9.000000,0.000000,3.500000
2013,-8.500000,0.000000,3.500000
2014,-8.000000,0.000000,3.500000
2015,-7.500000,0.000000,3.500000
2016,-7.000000,0.000000,3.500000
2017,-6.500000,0.000000,3.500000
2018,-6.000000,0.000000,3.500000
2019,-5.500000,0.000000,3.500000
2020,-5.000000,0.000000,3.500000
2021,-4.500000,0.000000,3.500000
2022,-4.000000,0.000000,3.500000
2023,-3.500000,0.000000,3.500000
2024,-3.000000,0.000000,3.500000
2025,-2.500000,0.000000,3.500000
2026,-2.000000,0.000000,3.500000
2027,-1.500000,0.000000,3.500000
2028,-1.000000,0.000000,3.500000
2029,-0.500000,0.000000,3.500000
2030,0.000000,0.000000,3.500000
2031,0.500000,0.000000,3.500000
2032,1.000000,0.000000,3.500000
2033,1.500000,0.000000,3.500000
2034,2.000000,0.000000,3.500000
2035,2.500000,0.000000,3.500000
2036,3.000000,0.000000,3.500000
2037,3.500000,0.000000,3.500000
2038,4.000000,0.000000,3.500000
2039,4.500000,0.000000,3.500000
2040,5.000000,0.000000,3.500000
2041,5.500000,0.000000,3.500000
2042,6.000000,0.000000,3.500000
2043,6.500000,0.000000,3.500000
2044,7.000000,0.000000,3.500000
2045,7.500000,0.000000,3.500000
2046,8.000000,0.000000,3.500000
2047,8.500000,0.000000,3.500000
2048,9.000000,0.000000,3.500000
2049,9.500000,0.000000,3.500000
2050,10.000000,0.000000,3.500000
2051,-10.000000,0.250000,3.500000
2052,-9.500000,0.250000,3.500000
2053,-9.000000,0.250000,3.500000
2054,-8.500000,0.250000,3.500000
2055,-8.000000,0.250000,3.500000
2056,-7.500000,0.250000,3.500000
2057,-7.000000,0.250000,3.500000
2058,-6.500000,0.250000,3.500000
2059,-6.000000,0.250000,3.500000
2060,-5.500000,0.250000,3.500000
2061,-5.000000,0.250000,3.500000
2062,-4.500000,0.250000,3.500000
2063,-4.000000,0.250000,3.500000
2064,-3.500000,0.250000,3.500000
2065,-3.000000,0.250000,3.500000
2066,-2.500000,0.250000,3.500000
2067,-2.000000,0.250000,3.500000
2068,-1.500000,0.250000,3.500000
2069,-1.000000,0.250000,3.500000
2070,-0.500000,0.250000,3.500000
2071,0.000000,0.250000,3.500000
2072,0.500000,0.250000,3.500000
2073,1.000000,0.250000,3.500000
2074,1.500000,0.250000,3.500000
2075,2.000000,0.250000,3.500000
2076,2.500000,0.250000,3.500000
2077,3.000000,0.250000,3.500000
2078,3.500000,0.250000,3.500000
2079,4.000000,0.250000,3.500000
2080,4.500000,0.250000,3.500000
2081,5.000000,0.250000,3.500000
2082,5.500000,0.250000,3.500000
2083,6.000000,0.250000,3.500000
2084,6.500000,0.250000,3.500000
2085,7.000000,0.250000,3.500000
2086,7.500000,0.250000,3.500000
2087,8.000000,0.250000,3.500000
2088,8.500000,0.250000,3.500000
2089,9.000000,0.250000,3.500000
2090,9.500000,0.250000,3.500000
2091,10.000000,0.250000,3.500000
2092,-10.000000,0.500000,3.500000
2093,-9.500000,0.500000,3.500000
2094,-9.000000,0.500000,3.500000
2095,-8.500000,0.500000,3.500000
2096,-8.000000,0.500000,3.500000
2097,-7.500000,0.500000,3.500000
2098,-7.000000,0.500000,3.500000
2099,-6.500000,0.500000,3.500000
2100,-6.000000,0.500000,3.500000
2101,-5.500000,0.500000,3.500000
2102,-5.000000,0.500000,3.500000
2103,-4.500000,0.500000,3.500000
2104,-4.000000,0.500000,3.500000
2105,-3.500000,0.500000,3.500000
2106,-3.000000,0.500000,3.500000
2107,-2.500000,0.500000,3.500000
2108,-2.000000,0.500000,3.500000
2109,-1.500000,0.500000,3.500000
2110,-1.000000,0.500000,3.500000
2111,-0.500000,0.500000,3.500000
2112,0.000000,0.500000,3.500000
2113,0.500000,0.500000,3.500000
2114,1.000000,0.500000,3.500000
2115,1.500000,0.500000,3.500000
2116,2.000000,0.500000,3.500000
2117,2.500000,0.500000,3.500000
2118,3.000000,0.500000,3.500000
2119,3.500000,0.500000,3.500000
2120,4.000000,0.500000,3.500000
2121,4.500000,0.500000,3.500000
2122,5.000000,0.500000,3.500000
2123,5.500000,0.500000,3.500000
2124,6.000000,0.500000,3.500000
2125,6.500000,0.500000,3.500000
2126,7.000000,0.500000,3.500000
2127,7.500000,0.500000,3.500000
2128,8.000000,0.500000,3.500000
2129,8.500000,0.500000,3.500000
2130,9.000000,0.500000,3.500000
2131,9.500000,0.500000,3.500000
2132,10.000000,0.500000,3.500000
2133,-10.000000,0.750000,3.500000
2134,-9.500000,0.750000,3.500000
2135,-9.000000,0.750000,3.500000
2136,-8.500000,0.750000,3.500000
2137,-8.000000,0.750000,3.500000
2138,-7.500000,0.750000,3.500000
2139,-7.000000,0.750000,3.500000
2140,-6.500000,0.750000,3.500000
2141,-6.000000,0.750000,3.500000
2142,-5.500000,0.750000,3.500000
2143,-5.000000,0.750000,3.500000
2144,-4.500000,0.750000,3.500000
2145,-4.000000,0.750000,3.500000
2146,-3.500000,0.750000,3.500000
2147,-3.000000,0.750000,3.500000
2148,-2.500000,0.750000,3.500000
2149,-2.000000,0.750000,3.500000
2150,-1.500000,0.750000,3.500000
2151,-1.000000,0.750000,3.500000
2152,-0.500000,0.750000,3.500000
2153,0.000000,0.750000,3.500000
2154,0.500000,0.750000,3.500000
2155,1.000000,0.750000,3.500000
2156,1.500000,0.750000,3.500000
2157,2.000000,0.750000,3.500000
2158,2.500000,0.750000,3.500000
2159,3.000000,0.750000,3.500000
2160,3.500000,0.750000,3.500000
2161,4.000000,0.750000,3.500000
2162,4.500000,0.750000,3.500000
2163,5.000000,0.750000,3.500000
2164,5.500000,0.750000,3.500000
2165,6.000000,0.750000,3.500000
2166,6.500000,0.750000,3.500000
2167,7.000000,0.750000,3.500000
2168,7.500000,0.750000,3.500000
2169,8.000000,0.750000,3.500000
2170,8.500000,0.750000,3.500000
2171,9.000000,0.750000,3.500000
2172,9.500000,0.750000,3.500000
2173,10.000000,0.750000,3.500000
2174,-10.000000,1.000000,3.500000
2175,-9.500000,1.000000,3.500000
2176,-9.000000,1.000000,3.500000
2177,-8.500000,1.000000,3.500000
2178,-8.000000,1.000000,3.500000
2179,-7.500000,1.000000,3.500000
2180,-7.000000,1.000000,3.500000
2181,-6.500000,1.000000,3.500000
2182,-6.000000,1.000000,3.500000
2183,-5.500000,1.000000,3.500000
2184,-5.000000,1.000000,3.500000
2185,-4.500000,1.000000,3.500000
2186,-4.000000,1.000000,3.500000
2187,-3.500000,1.000000,3.500000
2188,-3.000000,1.000000,3.500000
2189,-2.500000,1.000000,3.500000
2190,-2.000000,1.000000,3.500000
2191,-1.500000,1.000000,3.500000
2192,-1.000000,1.000000,3.500000
2193,-0.500000,1.000000,3.500000
2194,0.000000,1.000000,3.500000
2195,0.500000,1.000000,3.500000
2196,1.000000,1.000000,3.500000
2197,1.500000,1.000000,3.500000
2198,2.000000,1.000000,3.500000
2199,2.500000,1.000000,3.500000
2200,3.000000,1.000000,3.500000
2201,3.500000,1.000000,3.500000
2202,4.000000,1.000000,3.500000
2203,4.500000,1.000000,3.500000
2204,5.000000,1.000000,3.500000
2205,5.500000,1.000000,3.500000
2206,6.000000,1.000000,3.500000
2207,6.500000,1.000000,3.500000
2208,7.000000,1.000000,3.500000
2209,7.500000,1.000000,3.500000
2210,8.000000,1.000000,3.500000
2211,8.500000,1.000000,3.500000
2212,9.000000,1.000000,3.500000
2213,9.500000,1.000000,3.500000
2214,10.000000,1.000000,3.500000
2215,-10.000000,1.250000,3.500000
2216,-9.500000,1.250000,3.500000
2217,-9.000000,1.250000,3.500000
2218,-8.500000,1.250000,3.500000
2219,-8.000000,1.250000,3.500000
2220,-7.500000,1.250000,3.500000
2221,-7.000000,1.250000,3.500000
2222,-6.500000,1.250000,3.500000
2223,-6.000000,1.250000,3.500000
2224,-5.500000,1.250000,3.500000
2225,-5.000000,1.250000,3.500000
2226,-4.500000,1.250000,3.500000
2227,-4.000000,1.250000,3.500000
2228,-3.500000,1.250000,3.500000
2229,-3.000000,1.250000,3.500000
2230,-2.500000,1.250000,3.500000
2231,-2.000000,1.250000,3.500000
2232,-1.500000,1.250000,3.500000
2233,-1.000000,1.250000,3.500000
2234,-0.500000,1.250000,3.500000
2235,0.000000,1.250000,3.500000
2236,0.500000,1.250000,3.500000
2237,1.000000,1.250000,3.500000
2238,1.500000,1.250000,3.500000
2239,2.000000,1.250000,3.500000
2240,2.500000,1.250000,3.500000
2241,3.000000,1.250000,3.500000
2242,3.500000,1.250000,3.500000
2243,4.000000,1.250000,3.500000
2244,4.500000,1.250000,3.500000
2245,5.000000,1.250000,3.500000
2246,5.500000,1.250000,3.500000
2247,6.000000,1.250000,3.500000
2248,6.500000,1.250000,3.500000
2249,7.000000,1.250000,3.500000
2250,7.500000,1.250000,3.500000
2251,8.000000,1.250000,3.500000
2252,8.500000,1.250000,3.500000
2253,9.000000,1.250000,3.500000
2254,9.500000,1.250000,3.500000
2255,10.000000,1.250000,3.500000
2256,-10.000000,1.500000,3.500000
2257,-9.500000,1.500000,3.500000
2258,-9.000000,1.500000,3.500000
2259,-8.500000,1.500000,3.500000
2260,-8.000000,1.500000,3.500000
2261,-7.500000,1.500000,3.500000
2262,-7.000000,1.500000,3.500000
2263,-6.500000,1.500000,3.500000
2264,-6.000000,1.500000,3.500000
2265,-5.500000,1.500000,3.500000
2266,-5.000000,1.500000,3.500000
2267,-4.500000,1.500000,3.500000
2268,-4.000000,1.500000,3.500000
2269,-3.500000,1.500000,3.500000
2270,-3.000000,1.500000,3.500000
2271,-2.500000,1.500000,3.500000
2272,-2.000000,1.500000,3.500000
2273,-1.500000,1.500000,3.500000
2274,-1.000000,1.500000,3.500000
2275,-0.500000,1.500000,3.500000
2276,0.000000,1.500000,3.500000
2277,0.500000,1.500000,3.500000
2278,1.000000,1.500000,3.500000
2279,1.500000,1.500000,3.500000
2280,2.000000,1.500000,3.500000
2281,2.500000,1.500000,3.500000
2282,3.000000,1.500000,3.500000
2283,3.500000,1.500000,3.500000
2284,4.000000,1.500000,3.500000
2285,4.500000,1.500000,3.500000
2286,5.000000,1.500000,3.500000
2287,5.500000,1.500000,3.500000
2288,6.000000,1.500000,3.500000
2289,6.500000,1.500000,3.500000
2290,7.000000,1.500000,3.500000
2291,7.500000,1.500000,3.500000
2292,8.000000,1.500000,3.500000
2293,8.500000,1.500000,3.500000
2294,9.000000,1.500000,3.500000
2295,9.500000,1.500000,3.500000
2296,10.000000,1.500000,3.500000
2297,-10.000000,0.000000,4.000000
2298,-9.500000,0.000000,4.000000
2299,-9.000000,0.000000,4.000000
2300,-8.500000,0.000000,4.000000
2301,-8.000000,0.000000,4.000000
2302,-7.500000,0.000000,4.000000
2303,-7.000000,0.000000,4.000000
2304,-6.500000,0.000000,4.000000
2305,-6.000000,0.000000,4.000000
2306,-5.500000,0.000000,4.000000
2307,-5.000000,0.000000,4.000000
2308,-4.500000,0.000000,4.000000
2309,-4.000000,0.000000,4.000000
2310,-3.500000,0.000000,4.000000
2311,-3.000000,0.000000,4.000000
2312,-2.500000,0.000000,4.000000
2313,-2.000000,0.000000,4.000000
2314,-1.500000,0.000000,4.000000
2315,-1.000000,0.000000,4.000000
2316,-0.500000,0.000000,4.000000
2317,0.000000,0.000000,4.000000
2318,0.500000,0.000000,4.000000
2319,1.000000,0.000000,4.000000
2320,1.500000,0.000000,4.000000
2321,2.000000,0.000000,4.000000
2322,2.500000,0.000000,4.000000
2323,3.000000,0.000000,4.000000
2324,3.500000,0.000000,4.000000
2325,4.000000,0.000000,4.000000
2326,4.500000,0.000000,4.000000
2327,5.000000,0.000000,4.000000
2328,5.500000,0.000000,4.000000
2329,6.000000,0.000000,4.000000
2330,6.500000,0.000000,4.000000
2331,7.000000,0.000000,4.000000
2332,7.500000,0.000000,4.000000
2333,8.000000,0.000000,4.000000
2334,8.500000,0.000000,4.000000
2335,9.000000,0.000000,4.000000
2336,9.500000,0.000000,4.000000
2337,10.000000,0.000000,4.000000
2338,-10.000000,0.250000,4.000000
2339,-9.500000,0.250000,4.000000
2340,-9.000000,0.250000,4.000000
2341,-8.500000,0.250000,4.000000
2342,-8.000000,0.250000,4.000000
2343,-7.500000,0.250000,4.000000
2344,-7.000000,0.250000,4.000000
2345,-6.500000,0.250000,4.000000
2346,-6.000000,0.250000,4.000000
2347,-5.500000,0.250000,4.000000
2348,-5.000000,0.250000,4.000000
2349,-4.500000,0.250000,4.000000
2350,-4.000000,0.250000,4.000000
2351,-3.500000,0.250000,4.000000
2352,-3.000000,0.250000,4.000000
2353,-2.500000,0.250000,4.000000
2354,-2.000000,0.250000,4.000000
2355,-1.500000,0.250000,4.000000
2356,-1.000000,0.250000,4.000000
2357,-0.500000,0.250000,4.000000
2358,0.000000,0.250000,4.000000
2359,0.500000,0.250000,4.000000
2360,1.000000,0.250000,4.000000
2361,1.500000,0.250000,4.000000
2362,2.000000,0.250000,4.000000
2363,2.500000,0.250000,4.000000
2364,3.000000,0.250000,4.000000
2365,3.500000,0.250000,4.000000
2366,4.000000,0.250000,4.000000
2367,4.500000,0.250000,4.000000
2368,5.000000,0.250000,4.000000
2369,5.500000,0.250000,4.000000
2370,6.000000,0.250000,4.000000
2371,6.500000,0.250000,4.000000
2372,7.000000,0.250000,4.000000
2373,7.500000,0.250000,4.000000
2374,8.000000,0.250000,4.000000
2375,8.500000,0.250000,4.000000
2376,9.000000,0.250000,4.000000
2377,9.500000,0.250000,4.000000
2378,10.000000,0.250000,4.000000
2379,-10.000000,0.500000,4.000000
2380,-9.500000,0.500000,4.000000
2381,-9.000000,0.500000,4.000000
2382,-8.500000,0.500000,4.000000
2383,-8.000000,0.500000,4.000000
2384,-7.500000,0.500000,4.000000
2385,-7.000000,0.500000,4.000000
2386,-6.500000,0.500000,4.000000
2387,-6.000000,0.500000,4.000000
2388,-5.500000,0.500000,4.000000
2389,-5.000000,0.500000,4.000000
2390,-4.500000,0.500000,4.000000
2391,-4.000000,0.500000,4.000000
2392,-3.500000,0.500000,4.000000
2393,-3.000000,0.500000,4.000000
2394,-2.500000,0.500000,4.000000
2395,-2.000000,0.500000,4.000000
2396,-1.500000,0.500000,4.000000
2397,-1.000000,0.500000,4.000000
2398,-0.500000,0.500000,4.000000
2399,0.000000,0.500000,4.000000
2400,0.500000,0.500000,4.000000
2401,1.000000,0.500000,4.000000
2402,1.500000,0.500000,4.000000
2403,2.000000,0.500000,4.000000
2404,2.500000,0.500000,4.000000
2405,3.000000,0.500000,4.000000
2406,3.500000,0.500000,4.000000
2407,4.000000,0.500000,4.000000
2408,4.500000,0.500000,4.000000
2409,5.000000,0.500000,4.000000
2410,5.500000,0.500000,4.000000
2411,6.000000,0.500000,4.000000
2412,6.500000,0.500000,4.000000
2413,7.000000,0.500000,4.000000
2414,7.500000,0.500000,4.000000
2415,8.000000,0.500000,4.000000
2416,8.500000,0.500000,4.000000
2417,9.000000,0.500000,4.000000
2418,9.500000,0.500000,4.000000
2419,10.000000,0.500000,4.000000
2420,-10.000000,0.750000,4.000000
2421,-9.500000,0.750000,4.000000
2422,-9.000000,0.750000,4.000000
2423,-8.500000,0.750000,4.000000
2424,-8.000000,0.750000,4.000000
2425,-7.500000,0.750000,4.000000
2426,-7.000000,0.750000,4.000000
2427,-6.500000,0.750000,4.000000
2428,-6.000000,0.750000,4.000000
2429,-5.500000,0.750000,4.000000
2430,-5.000000,0.750000,4.000000
2431,-4.500000,0.750000,4.000000
2432,-4.000000,0.750000,4.000000
2433,-3.500000,0.750000,4.000000
2434,-3.000000,0.750000,4.000000
2435,-2.500000,0.750000,4.000000
2436,-2.000000,0.750000,4.000000
2437,-1.500000,0.750000,4.000000
2438,-1.000000,0.750000,4.000000
2439,-0.500000,0.750000,4.000000
2440,0.000000,0.750000,4.000000
2441,0.500000,0.750000,4.000000
2442,1.000000,0.750000,4.000000
2443,1.500000,0.750000,4.000000
2444,2.000000,0.750000,4.000000
2445,2.500000,0.750000,4.000000
2446,3.000000,0.750000,4.000000
2447,3.500000,0.750000,4.000000
2448,4.000000,0.750000,4.000000
2449,4.500000,0.750000,4.000000
2450,5.000000,0.750000,4.000000
2451,5.500000,0.750000,4.000000
2452,6.000000,0.750000,4.000000
2453,6.500000,0.750000,4.000000
2454,7.000000,0.750000,4.000000
2455,7.500000,0.750000,4.000000
2456,8.000000,0.750000,4.000000
2457,8.500000,0.750000,4.000000
2458,9.000000,0.750000,4.000000
2459,9.500000,0.750000,4.000000
2460,10.000000,0.750000,4.000000
2461,-10.000000,1.000000,4.000000
2462,-9.500000,1.000000,4.000000
2463,-9.000000,1.000000,4.000000
2464,-8.500000,1.000000,4.000000
2465,-8.000000,1.000000,4.000000
2466,-7.500000,1.000000,4.000000
2467,-7.000000,1.000000,4.000000
2468,-6.500000,1.000000,4.000000
2469,-6.000000,1.000000,4.000000
2470,-5.500000,1.000000,4.000000
2471,-5.000000,1.000000,4.000000
2472,-4.500000,1.000000,4.000000
2473,-4.000000,1.000000,4.000000
2474,-3.500000,1.000000,4.000000
2475,-3.000000,1.000000,4.000000
2476,-2.500000,1.000000,4.000000
2477,-2.000000,1.000000,4.000000
2478,-1.500000,1.000000,4.000000
2479,-1.000000,1.000000,4.000000
2480,-0.500000,1.000000,4.000000
2481,0.000000,1.000000,4.000000
2482,0.500000,1.000000,4.000000
2483,1.000000,1.000000,4.000000
2484,1.500000,1.000000,4.000000
2485,2.000000,1.000000,4.000000
2486,2.500000,1.000000,4.000000
2487,3.000000,1.000000,4.000000
2488,3.500000,1.000000,4.000000
2489,4.000000,1.000000,4.000000
2490,4.500000,1.000000,4.000000
2491,5.000000,1.000000,4.000000
2492,5.500000,1.000000,4.000000
2493,6.000000,1.000000,4.000000
2494,6.500000,1.000000,4.000000
2495,7.000000,1.000000,4.000000
2496,7.500000,1.000000,4.000000
2497,8.000000,1.000000,4.000000
2498,8.500000,1.000000,4.000000
2499,9.000000,1.000000,4.000000
2500,9.500000,1.000000,4.000000
2501,10.000000,1.000000,4.000000
2502,-10.000000,1.250000,4.000000
2503,-9.500000,1.250000,4.000000
2504,-9.000000,1.250000,4.000000
2505,-8.500000,1.250000,4.000000
2506,-8.000000,1.250000,4.000000
2507,-7.500000,1.250000,4.000000
2508,-7.000000,1.250000,4.000000
2509,-6.500000,1.250000,4.000000
2510,-6.000000,1.250000,4.000000
2511,-5.500000,1.250000,4.000000
2512,-5.000000,1.250000,4.000000
2513,-4.500000,1.250000,4.000000
2514,-4.000000,1.250000,4.000000
2515,-3.500000,1.250000,4.000000
2516,-3.000000,1.250000,4.000000
2517,-2.500000,1.250000,4.000000
2518,-2.000000,1.250000,4.000000
2519,-1.500000,1.250000,4.000000
2520,-1.000000,1.250000,4.000000
2521,-0.500000,1.250000,4.000000
2522,0.000000,1.250000,4.000000
2523,0.500000,1.250000,4.000000
2524,1.000000,1.250000,4.000000
2525,1.500000,1.250000,4.000000
2526,2.000000,1.250000,4.000000
2527,2.500000,1.250000,4.000000
2528,3.000000,1.250000,4.000000
2529,3.500000,1.250000,4.000000
2530,4.000000,1.250000,4.000000
2531,4.500000,1.250000,4.000000
2532,5.000000,1.250000,4.000000
2533,5.500000,1.250000,4.000000
2534,6.000000,1.250000,4.000000
2535,6.500000,1.250000,4.000000
2536,7.000000,1.250000,4.000000
2537,7.500000,1.250000,4.000000
2538,8.000000,1.250000,4.000000
2539,8.500000,1.250000,4.000000
2540,9.000000,1.250000,4.000000
2541,9.500000,1.250000,4.000000
2542,10.000000,1.250000,4.000000
2543,-10.000000,1.500000,4.000000
2544,-9.500000,1.500000,4.000000
2545,-9.000000,1.500000,4.000000
2546,-8.500000,1.500000,4.000000
2547,-8.000000,1.500000,4.000000
2548,-7.500000,1.500000,4.000000
2549,-7.000000,1.500000,4.000000
2550,-6.500000,1.500000,4.000000
2551,-6.000000,1.500000,4.000000
2552,-5.500000,1.500000,4.000000
2553,-5.000000,1.500000,4.000000
2554,-4.500000,1.500000,4.000000
2555,-4.000000,1.500000,4.000000
2556,-3.500000,1.500000,4.000000
2557,-3.000000,1.500000,4.000000
2558,-2.500000,1.500000,4.000000
2559,-2.000000,1.500000,4.000000
2560,-1.500000,1.500000,4.000000
2561,-1.000000,1.500000,4.000000
2562,-0.500000,1.500000,4.000000
2563,0.000000,1.500000,4.000000
2564,0.500000,1.500000,4.000000
2565,1.000000,1.500000,4.000000
2566,1.500000,1.500000,4.000000
2567,2.000000,1.500000,4.000000
2568,2.500000,1.500000,4.000000
2569,3.000000,1.500000,4.000000
2570,3.500000,1.500000,4.000000
2571,4.000000,1.500000,4.000000
2572,4.500000,1.500000,4.000000
2573,5.000000,1.500000,4.000000
2574,5.500000,1.500000,4.000000
2575,6.000000,1.500000,4.000000
2576,6.500000,1.500000,4.000000
2577,7.000000,1.500000,4.000000
2578,7.500000,1.500000,4.000000
2579,8.000000,1.500000,4.000000
2580,8.500000,1.500000,4.000000
2581,9.000000,1.500000,4.000000
2582,9.500000,1.500000,4.000000
2583,10.000000,1.500000,4.000000
2584,-10.000000,0.000000,4.500000
2585,-9.500000,0.000000,4.500000
2586,-9.000000,0.000000,4.500000
2587,-8.500000,0.000000,4.500000
2588,-8.000000,0.000000,4.500000
2589,-7.500000,0.000000,4.500000
2590,-7.000000,0.000000,4.500000
2591,-6.500000,0.000000,4.500000
2592,-6.000000,0.000000,4.500000
2593,-5.500000,0.000000,4.500000
2594,-5.000000,0.000000,4.500000
2595,-4.500000,0.000000,4.500000
2596,-4.000000,0.000000,4.500000
2597,-3.500000,0.000000,4.500000
2598,-3.000000,0.000000,4.500000
2599,-2.500000,0.000000,4.500000
2600,-2.000000,0.000000,4.500000
2601,-1.500000,0.000000,4.500000
2602,-1.000000,0.000000,4.500000
2603,-0.500000,0.000000,4.500000
2604,0.000000,0.000000,4.500000
2605,0.500000,0.000000,4.500000
2606,1.000000,0.000000,4.500000
2607,1.500000,0.000000,4.500000
2608,2.000000,0.000000,4.500000
2609,2.500000,0.000000,4.500000
2610,3.000000,0.000000,4.500000
2611,3.500000,0.000000,4.500000
2612,4.000000,0.000000,4.500000
2613,4.500000,0.000000,4.500000
2614,5.000000,0.000000,4.500000
2615,5.500000,0.000000,4.500000
2616,6.000000,0.000000,4.500000
2617,6.500000,0.000000,4.500000
2618,7.000000,0.000000,4.500000
2619,7.500000,0.000000,4.500000
2620,8.000000,0.000000,4.500000
2621,8.500000,0.000000,4.500000
2622,9.000000,0.000000,4.500000
2623,9.500000,0.000000,4.500000
2624,10.000000,0.000000,4.500000
2625,-10.000000,0.250000,4.500000
2626,-9.500000,0.250000,4.500000
2627,-9.000000,0.250000,4.500000
2628,-8.500000,0.250000,4.500000
2629,-8.000000,0.250000,4.500000
2630,-7.500000,0.250000,4.500000
2631,-7.000000,0.250000,4.500000
2632,-6.500000,0.250000,4.500000
2633,-6.000000,0.250000,4.500000
2634,-5.500000,0.250000,4.500000
2635,-5.000000,0.250000,4.500000
2636,-4.500000,0.250000,4.500000
2637,-4.000000,0.250000,4.500000
2638,-3.500000,0.250000,4.500000
2639,-3.000000,0.250000,4.500000
2640,-2.500000,0.250000,4.500000
2641,-2.000000,0.250000,4.500000
2642,-1.500000,0.250000,4.500000
2643,-1.000000,0.250000,4.500000
2644,-0.500000,0.250000,4.500000
2645,0.000000,0.250000,4.500000
2646,0.500000,0.250000,4.500000
2647,1.000000,0.250000,4.500000
2648,1.500000,0.250000,4.500000
2649,2.000000,0.250000,4.500000
2650,2.500000,0.250000,4.500000
2651,3.000000,0.250000,4.500000
2652,3.500000,0.250000,4.500000
2653,4.000000,0.250000,4.500000
2654,4.500000,0.250000,4.500000
2655,5.000000,0.250000,4.500000
2656,5.500000,0.250000,4.500000
2657,6.000000,0.250000,4.500000
2658,6.500000,0.250000,4.500000
2659,7.000000,0.250000,4.500000
2660,7.500000,0.250000,4.500000
2661,8.000000,0.250000,4.500000
2662,8.500000,0.250000,4.500000
2663,9.000000,0.250000,4.500000
2664,9.500000,0.250000,4.500000
2665,10.000000,0.250000,4.500000
2666,-10.000000,0.500000,4.500000
2667,-9.500000,0.500000,4.500000
2668,-9.000000,0.500000,4.500000
2669,-8.500000,0.500000,4.500000
2670,-8.000000,0.500000,4.500000
2671,-7.500000,0.500000,4.500000
2672,-7.000000,0.500000,4.500000
2673,-6.500000,0.500000,4.500000
2674,-6.000000,0.500000,4.500000
2675,-5.500000,0.500000,4.500000
2676,-5.000000,0.500000,4.500000
2677,-4.500000,0.500000,4.500000
2678,-4.000000,0.500000,4.500000
2679,-3.500000,0.500000,4.500000
2680,-3.000000,0.500000,4.500000
2681,-2.500000,0.500000,4.500000
2682,-2.000000,0.500000,4.500000
2683,-1.500000,0.500000,4.500000
2684,-1.000000,0.500000,4.500000
2685,-0.500000,0.500000,4.500000
2686,0.000000,0.500000,4.500000
2687,0.500000,0.500000,4.500000
2688,1.000000,0.500000,4.500000
2689,1.500000,0.500000,4.500000
2690,2.000000,0.500000,4.500000
2691,2.500000,0.500000,4.500000
2692,3.000000,0.500000,4.500000
2693,3.500000,0.500000,4.500000
2694,4.000000,0.500000,4.500000
2695,4.500000,0.500000,4.500000
2696,5.000000,0.500000,4.500000
2697,5.500000,0.500000,4.500000
2698,6.000000,0.500000,4.500000
2699,6.500000,0.500000,4.500000
2700,7.000000,0.500000,4.500000
2701,7.500000,0.500000,4.500000
2702,8.000000,0.500000,4.500000
2703,8.500000,0.500000,4.500000
2704,9.000000,0.500000,4.500000
2705,9.500000,0.500000,4.500000
2706,10.000000,0.500000,4.500000
2707,-10.000000,0.750000,4.500000
2708,-9.500000,0.750000,4.500000
2709,-9.000000,0.750000,4.500000
2710,-8.500000,0.750000,4.500000
2711,-8.000000,0.750000,4.500000
2712,-7.500000,0.750000,4.500000
2713,-7.000000,0.750000,4.500000
2714,-6.500000,0.750000,4.500000
2715,-6.000000,0.750000,4.500000
2716,-5.500000,0.750000,4.500000
2717,-5.000000,0.750000,4.500000
2718,-4.500000,0.750000,4.500000
2719,-4.000000,0.750000,4.500000
2720,-3.500000,0.750000,4.500000
2721,-3.000000,0.750000,4.500000
2722,-2.500000,0.750000,4.500000
2723,-2.000000,0.750000,4.500000
2724,-1.500000,0.750000,4.500000
2725,-1.000000,0.750000,4.500000
2726,-0.500000,0.750000,4.500000
2727,0.000000,0.750000,4.500000
2728,0.500000,0.750000,4.500000
2729,1.000000,0.750000,4.500000
2730,1.500000,0.750000,4.500000
2731,2.000000,0.750000,4.500000
2732,2.500000,0.750000,4.500000
2733,3.000000,0.750000,4.500000
2734,3.500000,0.750000,4.500000
2735,4.000000,0.750000,4.500000
2736,4.500000,0.750000,4.500000
2737,5.000000,0.750000,4.500000
2738,5.500000,0.750000,4.500000
2739,6.000000,0.750000,4.500000
2740,6.500000,0.750000,4.500000
2741,7.000000,0.750000,4.500000
2742,7.500000,0.750000,4.500000
2743,8.000000,0.750000,4.500000
2744,8.500000,0.750000,4.500000
2745,9.000000,0.750000,4.500000
2746,9.500000,0.750000,4.500000
2747,10.000000,0.750000,4.500000
2748,-10.000000,1.000000,4.500000
2749,-9.500000,1.000000,4.500000
2750,-9.000000,1.000000,4.500000
2751,-8.500000,1.000000,4.500000
2752,-8.000000,1.000000,4.500000
2753,-7.500000,1.000000,4.500000
2754,-7.000000,1.000000,4.500000
2755,-6.500000,1.000000,4.500000
2756,-6.000000,1.000000,4.500000
2757,-5.500000,1.000000,4.500000
2758,-5.000000,1.000000,4.500000
2759,-4.500000,1.000000,4.500000
2760,-4.000000,1.000000,4.500000
2761,-3.500000,1.000000,4.500000
2762,-3.000000,1.000000,4.500000
2763,-2.500000,1.000000,4.500000
2764,-2.000000,1.000000,4.500000
2765,-1.500000,1.000000,4.500000
2766,-1.000000,1.000000,4.500000
2767,-0.500000,1.000000,4.500000
2768,0.000000,1.000000,4.500000
2769,0.500000,1.000000,4.500000
2770,1.000000,1.000000,4.500000
2771,1.500000,1.000000,4.500000
2772,2.000000,1.000000,4.500000
2773,2.500000,1.000000,4.500000
2774,3.000000,1.000000,4.500000
2775,3.500000,1.000000,4.500000
2776,4.000000,1.000000,4.500000
2777,4.500000,1.000000,4.500000
2778,5.000000,1.000000,4.500000
2779,5.500000,1.000000,4.500000
2780,6.000000,1.000000,4.500000
2781,6.500000,1.000000,4.500000
2782,7.000000,1.000000,4.500000
2783,7.500000,1.000000,4.500000
2784,8.000000,1.000000,4.500000
2785,8.500000,1.000000,4.500000
2786,9.000000,1.000000,4.500000
2787,9.500000,1.000000,4.500000
2788,10.000000,1.000000,4.500000
2789,-10.000000,1.250000,4.500000
2790,-9.500000,1.250000,4.500000
2791,-9.000000,1.250000,4.500000
2792,-8.500000,1.250000,4.500000
2793,-8.000000,1.250000,4.500000
2794,-7.500000,1.250000,4.500000
2795,-7.000000,1.250000,4.500000
2796,-6.500000,1.250000,4.500000
2797,-6.000000,1.250000,4.500000
2798,-5.500000,1.250000,4.500000
2799,-5.000000,1.250000,4.500000
2800,-4.500000,1.250000,4.500000
2801,-4.000000,1.250000,4.500000
2802,-3.500000,1.250000,4.500000
2803,-3.000000,1.250000,4.500000
2804,-2.500000,1.250000,4.500000
2805,-2.000000,1.250000,4.500000
2806,-1.500000,1.250000,4.500000
2807,-1.000000,1.250000,4.500000
2808,-0.500000,1.250000,4.500000
2809,0.000000,1.250000,4.500000
2810,0.500000,1.250000,4.500000
2811,1.000000,1.250000,4.500000
2812,1.500000,1.250000,4.500000
2813,2.000000,1.250000,4.500000
2814,2.500000,1.250000,4.500000
2815,3.000000,1.250000,4.500000
2816,3.500000,1.250000,4.500000
2817,4.000000,1.250000,4.500000
2818,4.500000,1.250000,4.500000
2819,5.000000,1.250000,4.500000
2820,5.500000,1.250000,4.500000
2821,6.000000,1.250000,4.500000
2822,6.500000,1.250000,4.500000
2823,7.000000,1.250000,4.500000
2824,7.500000,1.250000,4.500000
2825,8.000000,1.250000,4.500000
2826,8.500000,1.250000,4.500000
2827,9.000000,1.250000,4.500000
2828,9.500000,1.250000,4.500000
2829,10.000000,1.250000,4.500000
2830,-10.000000,1.500000,4.500000
2831,-9.500000,1.500000,4.500000
2832,-9.000000,1.500000,4.500000
2833,-8.500000,1.500000,4.500000
2834,-8.000000,1.500000,4.500000
2835,-7.500000,1.500000,4.500000
2836,-7.000000,1.500000,4.500000
2837,-6.500000,1.500000,4.500000
2838,-6.000000,1.500000,4.500000
2839,-5.500000,1.500000,4.500000
2840,-5.000000,1.500000,4.500000
2841,-4.500000,1.500000,4.500000
2842,-4.000000,1.500000,4.500000
2843,-3.500000,1.500000,4.500000
2844,-3.000000,1.500000,4.500000
2845,-2.500000,1.500000,4.500000
2846,-2.000000,1.500000,4.500000
2847,-1.500000,1.500000,4.500000
2848,-1.000000,1.500000,4.500000
2849,-0.500000,1.500000,4.500000
2850,0.000000,1.500000,4.500000
2851,0.500000,1.500000,4.500000
2852,1.000000,1.500000,4.500000
2853,1.500000,1.500000,4.500000
2854,2.000000,1.500000,4.500000
2855,2.500000,1.500000,4.500000
2856,3.000000,1.500000,4.500000
2857,3.500000,1.500000,4.500000
2858,4.000000,1.500000,4.500000
2859,4.500000,1.500000,4.500000
2860,5.000000,1.500000,4.500000
2861,5.500000,1.500000,4.500000
2862,6.000000,1.500000,4.500000
2863,6.500000,1.500000,4.500000
2864,7.000000,1.500000,4.500000
2865,7.500000,1.500000,4.500000
2866,8.000000,1.500000,4.500000
2867,8.500000,1.500000,4.500000
2868,9.000000,1.500000,4.500000
2869,9.500000,1.500000,4.500000
2870,10.000000,1.500000,4.500000
2871,-10.000000,0.000000,5.000000
2872,-9.500000,0.000000,5.000000
2873,-9.000000,0.000000,5.000000
2874,-8.500000,0.000000,5.000000
2875,-8.000000,0.000000,5.000000
2876,-7.500000,0.000000,5.000000
2877,-7.000000,0.000000,5.000000
2878,-6.500000,0.000000,5.000000
2879,-6.000000,0.000000,5.000000
2880,-5.500000,0.000000,5.000000
2881,-5.000000,0.000000,5.000000
2882,-4.500000,0.000000,5.000000
2883,-4.000000,0.000000,5.000000
2884,-3.500000,0.000000,5.000000
2885,-3.000000,0.000000,5.000000
2886,-2.500000,0.000000,5.000000
2887,-2.000000,0.000000,5.000000
2888,-1.500000,0.000000,5.000000
2889,-1.000000,0.000000,5.000000
2890,-0.500000,0.000000,5.000000
2891,0.000000,0.000000,5.000000
2892,0.500000,0.000000,5.000000
2893,1.000000,0.000000,5.000000
2894,1.500000,0.000000,5.000000
2895,2.000000,0.000000,5.000000
2896,2.500000,0.000000,5.000000
2897,3.000000,0.000000,5.000000
2898,3.500000,0.000000,5.000000
2899,4.000000,0.000000,5.000000
2900,4.500000,0.000000,5.000000
2901,5.000000,0.000000,5.000000
2902,5.500000,0.000000,5.000000
2903,6.000000,0.000000,5.000000
2904,6.500000,0.000000,5.000000
2905,7.000000,0.000000,5.000000
2906,7.500000,0.000000,5.000000
2907,8.000000,0.000000,5.000000
2908,8.500000,0.000000,5.000000
2909,9.000000,0.000000,5.000000
2910,9.500000,0.000000,5.000000
2911,10.000000,0.000000,5.000000
2912,-10.000000,0.250000,5.000000
2913,-9.500000,0.250000,5.000000
2914,-9.000000,0.250000,5.000000
2915,-8.500000,0.250000,5.000000
2916,-8.000000,0.250000,5.000000
2917,-7.500000,0.250000,5.000000
2918,-7.000000,0.250000,5.000000
2919,-6.500000,0.250000,5.000000
2920,-6.000000,0.250000,5.000000
2921,-5.500000,0.250000,5.000000
2922,-5.000000,0.250000,5.000000
2923,-4.500000,0.250000,5.000000
2924,-4.000000,0.250000,5.000000
2925,-3.500000,0.250000,5.000000
2926,-3.000000,0.250000,5.000000
2927,-2.500000,0.250000,5.000000
2928,-2.000000,0.250000,5.000000
2929,-1.500000,0.250000,5.000000
2930,-1.000000,0.250000,5.000000
2931,-0.500000,0.250000,5.000000
2932,0.000000,0.250000,5.000000
2933,0.500000,0.250000,5.000000
2934,1.000000,0.250000,5.000000
2935,1.500000,0.250000,5.000000
2936,2.000000,0.250000,5.000000
2937,2.500000,0.250000,5.000000
2938,3.000000,0.250000,5.000000
2939,3.500000,0.250000,5.000000
2940,4.000000,0.250000,5.000000
2941,4.500000,0.250000,5.000000
2942,5.000000,0.250000,5.000000
2943,5.500000,0.250000,5.000000
2944,6.000000,0.250000,5.000000
2945,6.500000,0.250000,5.000000
2946,7.000000,0.250000,5.000000
2947,7.500000,0.250000,5.000000
2948,8.000000,0.250000,5.000000
2949,8.500000,0.250000,5.000000
2950,9.000000,0.250000,5.000000
2951,9.500000,0.250000,5.000000
2952,10.000000,0.250000,5.000000
2953,-10.000000,0.500000,5.000000
2954,-9.500000,0.500000,5.000000
2955,-9.000000,0.500000,5.000000
2956,-8.500000,0.500000,5.000000
2957,-8.000000,0.500000,5.000000
2958,-7.500000,0.500000,5.000000
2959,-7.000000,0.500000,5.000000
2960,-6.500000,0.500000,5.000000
2961,-6.000000,0.500000,5.000000
2962,-5.500000,0.500000,5.000000
2963,-5.000000,0.500000,5.000000
2964,-4.500000,0.500000,5.000000
2965,-4.000000,0.500000,5.000000
2966,-3.500000,0.500000,5.000000
2967,-3.000000,0.500000,5.000000
2968,-2.500000,0.500000,5.000000
2969,-2.000000,0.500000,5.000000
2970,-1.500000,0.500000,5.000000
2971,-1.000000,0.500000,5.000000
2972,-0.500000,0.500000,5.000000
2973,0.000000,0.500000,5.000000
2974,0.500000,0.500000,5.000000
2975,1.000000,0.500000,5.000000
2976,1.500000,0.500000,5.000000
2977,2.000000,0.500000,5.000000
2978,2.500000,0.500000,5.000000
2979,3.000000,0.500000,5.000000
2980,3.500000,0.500000,5.000000
2981,4.000000,0.500000,5.000000
2982,4.500000,0.500000,5.000000
2983,5.000000,0.500000,5.000000
2984,5.500000,0.500000,5.000000
2985,6.000000,0.500000,5.000000
2986,6.500000,0.500000,5.000000
2987,7.000000,0.500000,5.000000
2988,7.500000,0.500000,5.000000
2989,8.000000,0.500000,5.000000
2990,8.500000,0.500000,5.000000
2991,9.000000,0.500000,5.000000
2992,9.500000,0.500000,5.000000
2993,10.000000,0.500000,5.000000
2994,-10.000000,0.750000,5.000000
2995,-9.500000,0.750000,5.000000
2996,-9.000000,0.750000,5.000000
2997,-8.500000,0.750000,5.000000
2998,-8.000000,0.750000,5.000000
2999,-7.500000,0.750000,5.000000
3000,-7.000000,0.750000,5.000000
3001,-6.500000,0.750000,5.000000
3002,-6.000000,0.750000,5.000000
3003,-5.500000,0.750000,5.000000
3004,-5.000000,0.750000,5.000000
3005,-4.500000,0.750000,5.000000
3006,-4.000000,0.750000,5.000000
3007,-3.500000,0.750000,5.000000
3008,-3.000000,0.750000,5.000000
3009,-2.500000,0.750000,5.000000
3010,-2.000000,0.750000,5.000000
3011,-1.500000,0.750000,5.000000
3012,-1.000000,0.750000,5.000000
3013,-0.500000,0.750000,5.000000
3014,0.000000,0.750000,5.000000
3015,0.500000,0.750000,5.000000
3016,1.000000,0.750000,5.000000
3017,1.500000,0.750000,5.000000
3018,2.000000,0.750000,5.000000
3019,2.500000,0.750000,5.000000
3020,3.000000,0.750000,5.000000
3021,3.500000,0.750000,5.000000
3022,4.000000,0.750000,5.000000
3023,4.500000,0.750000,5.000000
3024,5.000000,0.750000,5.000000
3025,5.500000,0.750000,5.000000
3026,6.000000,0.750000,5.000000
3027,6.500000,0.750000,5.000000
3028,7.000000,0.750000,5.000000
3029,7.500000,0.750000,5.000000
3030,8.000000,0.750000,5.000000
3031,8.500000,0.750000,5.000000
3032,9.000000,0.750000,5.000000
3033,9.500000,0.750000,5.000000
3034,10.000000,0.750000,5.000000
3035,-10.000000,1.000000,5.000000
3036,-9.500000,1.000000,5.000000
3037,-9.000000,1.000000,5.000000
3038,-8.500000,1.000000,5.000000
3039,-8.000000,1.000000,5.000000
3040,-7.500000,1.000000,5.000000
3041,-7.000000,1.000000,5.000000
3042,-6.500000,1.000000,5.000000
3043,-6.000000,1.000000,5.000000
3044,-5.500000,1.000000,5.000000
3045,-5.000000,1.000000,5.000000
3046,-4.500000,1.000000,5.000000
3047,-4.000000,1.000000,5.000000
3048,-3.500000,1.000000,5.000000
3049,-3.000000,1.000000,5.000000
3050,-2.500000,1.000000,5.000000
3051,-2.000000,1.000000,5.000000
3052,-1.500000,1.000000,5.000000
3053,-1.000000,1.000000,5.000000
3054,-0.500000,1.000000,5.000000
3055,0.000000,1.000000,5.000000
3056,0.500000,1.000000,5.000000
3057,1.000000,1.000000,5.000000
3058,1.500000,1.000000,5.000000
3059,2.000000,1.000000,5.000000
3060,2.500000,1.000000,5.000000
3061,3.000000,1.000000,5.000000
3062,3.500000,1.000000,5.000000
3063,4.000000,1.000000,5.000000
3064,4.500000,1.000000,5.000000
3065,5.000000,1.000000,5.000000
3066,5.500000,1.000000,5.000000
3067,6.000000,1.000000,5.000000
3068,6.500000,1.000000,5.000000
3069,7.000000,1.000000,5.000000
3070,7.500000,1.000000,5.000000
3071,8.000000,1.000000,5.000000
3072,8.500000,1.000000,5.000000
3073,9.000000,1.000000,5.000000
3074,9.500000,1.000000,5.000000
3075,10.000000,1.000000,5.000000
3076,-10.000000,1.250000,5.000000
3077,-9.500000,1.250000,5.000000
3078,-9.000000,1.250000,5.000000
3079,-8.500000,1.250000,5.000000
3080,-8.000000,1.250000,5.000000
3081,-7.500000,1.250000,5.000000
3082,-7.000000,1.250000,5.000000
3083,-6.500000,1.250000,5.000000
3084,-6.000000,1.250000,5.000000
3085,-5.500000,1.250000,5.000000
3086,-5.000000,1.250000,5.000000
3087,-4.500000,1.250000,5.000000
3088,-4.000000,1.250000,5.000000
3089,-3.500000,1.250000,5.000000
3090,-3.000000,1.250000,5.000000
3091,-2.500000,1.250000,5.000000
3092,-2.000000,1.250000,5.000000
3093,-1.500000,1.250000,5.000000
3094,-1.000000,1.250000,5.000000
3095,-0.500000,1.250000,5.000000
3096,0.000000,1.250000,5.000000
3097,0.500000,1.250000,5.000000
3098,1.000000,1.250000,5.000000
3099,1.500000,1.250000,5.000000
3100,2.000000,1.250000,5.000000
3101,2.500000,1.250000,5.000000
3102,3.000000,1.250000,5.000000
3103,3.500000,1.250000,5.000000
3104,4.000000,1.250000,5.000000
3105,4.500000,1.250000,5.000000
3106,5.000000,1.250000,5.000000
3107,5.500000,1.250000,5.000000
3108,6.000000,1.250000,5.000000
3109,6.500000,1.250000,5.000000
3110,7.000000,1.250000,5.000000
3111,7.500000,1.250000,5.000000
3112,8.000000,1.250000,5.000000
3113,8.500000,1.250000,5.000000
3114,9.000000,1.250000,5.000000
3115,9.500000,1.250000,5.000000
3116,10.000000,1.250000,5.000000
3117,-10.000000,1.500000,5.000000
3118,-9.500000,1.500000,5.000000
3119,-9.000000,1.500000,5.000000
3120,-8.500000,1.500000,5.000000
3121,-8.000000,1.500000,5.000000
3122,-7.500000,1.500000,5.000000
3123,-7.000000,1.500000,5.000000
3124,-6.500000,1.500000,5.000000
3125,-6.000000,1.500000,5.000000
3126,-5.500000,1.500000,5.000000
3127,-5.000000,1.500000,5.000000
3128,-4.500000,1.500000,5.000000
3129,-4.000000,1.500000,5.000000
3130,-3.500000,1.500000,5.000000
3131,-3.000000,1.500000,5.000000
3132,-2.500000,1.500000,5.000000
3133,-2.000000,1.500000,5.000000
3134,-1.500000,1.500000,5.000000
3135,-1.000000,1.500000,5.000000
3136,-0.500000,1.500000,5.000000
3137,0.000000,1.500000,5.000000
3138,0.500000,1.500000,5.000000
3139,1.000000,1.500000,5.000000
3140,1.500000,1.500000,5.000000
3141,2.000000,1.500000,5.000000
3142,2.500000,1.500000,5.000000
3143,3.000000,1.500000,5.000000
3144,3.500000,1.500000,5.000000
3145,4.000000,1.500000,5.000000
3146,4.500000,1.500000,5.000000
3147,5.000000,1.500000,5.000000
3148,5.500000,1.500000,5.000000
3149,6.000000,1.500000,5.000000
3150,6.500000,1.500000,5.000000
3151,7.000000,1.500000,5.000000
3152,7.500000,1.500000,5.000000
3153,8.000000,1.500000,5.000000
3154,8.500000,1.500000,5.000000
3155,9.000000,1.500000,5.000000
3156,9.500000,1.500000,5.000000
3157,10.000000,1.500000,5.000000
3158,-10.000000,0.000000,5.500000
3159,-9.500000,0.000000,5.500000
3160,-9.000000,0.000000,5.500000
3161,-8.500000,0.000000,5.500000
3162,-8.000000,0.000000,5.500000
3163,-7.500000,0.000000,5.500000
3164,-7.000000,0.000000,5.500000
3165,-6.500000,0.000000,5.500000
3166,-6.000000,0.000000,5.500000
3167,-5.500000,0.000000,5.500000
3168,-5.000000,0.000000,5.500000
3169,-4.500000,0.000000,5.500000
3170,-4.000000,0.000000,5.500000
3171,-3.500000,0.000000,5.500000
3172,-3.000000,0.000000,5.500000
3173,-2.500000,0.000000,5.500000
3174,-2.000000,0.000000,5.500000
3175,-1.500000,0.000000,5.500000
3176,-1.000000,0.000000,5.500000
3177,-0.500000,0.000000,5.500000
3178,0.000000,0.000000,5.500000
3179,0.500000,0.000000,5.500000
3180,1.000000,0.000000,5.500000
3181,1.500000,0.000000,5.500000
3182,2.000000,0.000000,5.500000
3183,2.500000,0.000000,5.500000
3184,3.000000,0.000000,5.500000
3185,3.500000,0.000000,5.500000
3186,4.000000,0.000000,5.500000
3187,4.500000,0.000000,5.500000
3188,5.000000,0.000000,5.500000
3189,5.500000,0.000000,5.500000
3190,6.000000,0.000000,5.500000
3191,6.500000,0.000000,5.500000
3192,7.000000,0.000000,5.500000
3193,7.500000,0.000000,5.500000
3194,8.000000,0.000000,5.500000
3195,8.500000,0.000000,5.500000
3196,9.000000,0.000000,5.500000
3197,9.500000,0.000000,5.500000
3198,10.000000,0.000000,5.500000
3199,-10.000000,0.250000,5.500000
3200,-9.500000,0.250000,5.500000
3201,-9.000000,0.250000,5.500000
3202,-8.500000,0.250000,5.500000
3203,-8.000000,0.250000,5.500000
3204,-7.500000,0.250000,5.500000
3205,-7.000000,0.250000,5.500000
3206,-6.500000,0.250000,5.500000
3207,-6.000000,0.250000,5.500000
3208,-5.500000,0.250000,5.500000
3209,-5.000000,0.250000,5.500000
3210,-4.500000,0.250000,5.500000
3211,-4.000000,0.250000,5.500000
3212,-3.500000,0.250000,5.500000
3213,-3.000000,0.250000,5.500000
3214,-2.500000,0.250000,5.500000
3215,-2.000000,0.250000,5.500000
3216,-1.500000,0.250000,5.500000
3217,-1.000000,0.250000,5.500000
3218,-0.500000,0.250000,5.500000
3219,0.000000,0.250000,5.500000
3220,0.500000,0.250000,5.500000
3221,1.000000,0.250000,5.500000
3222,1.500000,0.250000,5.500000
3223,2.000000,0.250000,5.500000
3224,2.500000,0.250000,5.500000
3225,3.000000,0.250000,5.500000
3226,3.500000,0.250000,5.500000
3227,4.000000,0.250000,5.500000
3228,4.500000,0.250000,5.500000
3229,5.000000,0.250000,5.500000
3230,5.500000,0.250000,5.500000
3231,6.000000,0.250000,5.500000
3232,6.500000,0.250000,5.500000
3233,7.000000,0.250000,5.500000
3234,7.500000,0.250000,5.500000
3235,8.000000,0.250000,5.500000
3236,8.500000,0.250000,5.500000
3237,9.000000,0.250000,5.500000
3238,9.500000,0.250000,5.500000
3239,10.000000,0.250000,5.500000
3240,-10.000000,0.500000,5.500000
3241,-9.500000,0.500000,5.500000
3242,-9.000000,0.500000,5.500000
3243,-8.500000,0.500000,5.500000
3244,-8.000000,0.500000,5.500000
3245,-7.500000,0.500000,5.500000
3246,-7.000000,0.500000,5.500000
3247,-6.500000,0.500000,5.500000
3248,-6.000000,0.500000,5.500000
3249,-5.500000,0.500000,5.500000
3250,-5.000000,0.500000,5.500000
3251,-4.500000,0.500000,5.500000
3252,-4.000000,0.500000,5.500000
3253,-3.500000,0.500000,5.500000
3254,-3.000000,0.500000,5.500000
3255,-2.500000,0.500000,5.500000
3256,-2.000000,0.500000,5.500000
3257,-1.500000,0.500000,5.500000
3258,-1.000000,0.500000,5.500000
3259,-0.500000,0.500000,5.500000
3260,0.000000,0.500000,5.500000
3261,0.500000,0.500000,5.500000
3262,1.000000,0.500000,5.500000
3263,1.500000,0.500000,5.500000
3264,2.000000,0.500000,5.500000
3265,2.500000,0.500000,5.500000
3266,3.000000,0.500000,5.500000
3267,3.500000,0.500000,5.500000
3268,4.000000,0.500000,5.500000
3269,4.500000,0.500000,5.500000
3270,5.000000,0.500000,5.500000
3271,5.500000,0.500000,5.500000
3272,6.000000,0.500000,5.500000
3273,6.500000,0.500000,5.500000
3274,7.000000,0.500000,5.500000
3275,7.500000,0.500000,5.500000
3276,8.000000,0.500000,5.500000
3277,8.500000,0.500000,5.500000
3278,9.000000,0.500000,5.500000
3279,9.500000,0.500000,5.500000
3280,10.000000,0.500000,5.500000
3281,-10.000000,0.750000,5.500000
3282,-9.500000,0.750000,5.500000
3283,-9.000000,0.750000,5.500000
3284,-8.500000,0.750000,5.500000
3285,-8.000000,0.750000,5.500000
3286,-7.500000,0.750000,5.500000
3287,-7.000000,0.750000,5.500000
3288,-6.500000,0.750000,5.500000
3289,-6.000000,0.750000,5.500000
3290,-5.500000,0.750000,5.500000
3291,-5.000000,0.750000,5.500000
3292,-4.500000,0.750000,5.500000
3293,-4.000000,0.750000,5.500000
3294,-3.500000,0.750000,5.500000
3295,-3.000000,0.750000,5.500000
3296,-2.500000,0.750000,5.500000
3297,-2.000000,0.750000,5.500000
3298,-1.500000,0.750000,5.500000
3299,-1.000000,0.750000,5.500000
3300,-0.500000,0.750000,5.500000
3301,0.000000,0.750000,5.500000
3302,0.500000,0.750000,5.500000
3303,1.000000,0.750000,5.500000
3304,1.500000,0.750000,5.500000
3305,2.000000,0.750000,5.500000
3306,2.500000,0.750000,5.500000
3307,3.000000,0.750000,5.500000
3308,3.500000,0.750000,5.500000
3309,4.000000,0.750000,5.500000
3310,4.500000,0.750000,5.500000
3311,5.000000,0.750000,5.500000
3312,5.500000,0.750000,5.500000
3313,6.000000,0.750000,5.500000
3314,6.500000,0.750000,5.500000
3315,7.000000,0.750000,5.500000
3316,7.500000,0.750000,5.500000
3317,8.000000,0.750000,5.500000
3318,8.500000,0.750000,5.500000
3319,9.000000,0.750000,5.500000
3320,9.500000,0.750000,5.500000
3321,10.000000,0.750000,5.500000
3322,-10.000000,1.000000,5.500000
3323,-9.500000,1.000000,5.500000
3324,-9.000000,1.000000,5.500000
3325,-8.500000,1.000000,5.500000
3326,-8.000000,1.000000,5.500000
3327,-7.500000,1.000000,5.500000
3328,-7.000000,1.000000,5.500000
3329,-6.500000,1.000000,5.500000
3330,-6.000000,1.000000,5.500000
3331,-5.500000,1.000000,5.500000
3332,-5.000000,1.000000,5.500000
3333,-4.500000,1.000000,5.500000
3334,-4.000000,1.000000,5.500000
3335,-3.500000,1.000000,5.500000
3336,-3.000000,1.000000,5.500000
3337,-2.500000,1.000000,5.500000
3338,-2.000000,1.000000,5.500000
3339,-1.500000,1.000000,5.500000
3340,-1.000000,1.000000,5.500000
3341,-0.500000,1.000000,5.500000
3342,0.000000,1.000000,5.500000
3343,0.500000,1.000000,5.500000
3344,1.000000,1.000000,5.500000
3345,1.500000,1.000000,5.500000
3346,2.000000,1.000000,5.500000
3347,2.500000,1.000000,5.500000
3348,3.000000,1.000000,5.500000
3349,3.500000,1.000000,5.500000
3350,4.000000,1.000000,5.500000
3351,4.500000,1.000000,5.500000
3352,5.000000,1.000000,5.500000
3353,5.500000,1.000000,5.500000
3354,6.000000,1.000000,5.500000
3355,6.500000,1.000000,5.500000
3356,7.000000,1.000000,5.500000
3357,7.500000,1.000000,5.500000
3358,8.000000,1.000000,5.500000
3359,8.500000,1.000000,5.500000
3360,9.000000,1.000000,5.500000
3361,9.500000,1.000000,5.500000
3362,10.000000,1.000000,5.500000
3363,-10.000000,1.250000,5.500000
3364,-9.500000,1.250000,5.500000
3365,-9.000000,1.250000,5.500000
3366,-8.500000,1.250000,5.500000
3367,-8.000000,1.250000,5.500000
3368,-7.500000,1.250000,5.500000
3369,-7.000000,1.250000,5.500000
3370,-6.500000,1.250000,5.500000
3371,-6.000000,1.250000,5.500000
3372,-5.500000,1.250000,5.500000
3373,-5.000000,1.250000,5.500000
3374,-4.500000,1.250000,5.500000
3375,-4.000000,1.250000,5.500000
3376,-3.500000,1.250000,5.500000
3377,-3.000000,1.250000,5.500000
3378,-2.500000,1.250000,5.500000
3379,-2.000000,1.250000,5.500000
3380,-1.500000,1.250000,5.500000
3381,-1.000000,1.250000,5.500000
3382,-0.500000,1.250000,5.500000
3383,0.000000,1.250000,5.500000
3384,0.500000,1.250000,5.500000
3385,1.000000,1.250000,5.500000
3386,1.500000,1.250000,5.500000
3387,2.000000,1.250000,5.500000
3388,2.500000,1.250000,5.500000
3389,3.000000,1.250000,5.500000
3390,3.500000,1.250000,5.500000
3391,4.000000,1.250000,5.500000
3392,4.500000,1.250000,5.500000
3393,5.000000,1.250000,5.500000
3394,5.500000,1.250000,5.500000
3395,6.000000,1.250000,5.500000
3396,6.500000,1.250000,5.500000
3397,7.000000,1.250000,5.500000
3398,7.500000,1.250000,5.500000
3399,8.000000,1.250000,5.500000
3400,8.500000,1.250000,5.500000
3401,9.000000,1.250000,5.500000
3402,9.500000,1.250000,5.500000
3403,10.000000,1.250000,5.500000
3404,-10.000000,1.500000,5.500000
3405,-9.500000,1.500000,5.500000
3406,-9.000000,1.500000,5.500000
3407,-8.500000,1.500000,5.500000
3408,-8.000000,1.500000,5.500000
3409,-7.500000,1.500000,5.500000
3410,-7.000000,1.500000,5.500000
3411,-6.500000,1.500000,5.500000
3412,-6.000000,1.500000,5.500000
3413,-5.500000,1.500000,5.500000
3414,-5.000000,1.500000,5.500000
3415,-4.500000,1.500000,5.500000
3416,-4.000000,1.500000,5.500000
3417,-3.500000,1.500000,5.500000
3418,-3.000000,1.500000,5.500000
3419,-2.500000,1.500000,5.500000
3420,-2.000000,1.500000,5.500000
3421,-1.500000,1.500000,5.500000
3422,-1.000000,1.500000,5.500000
3423,-0.500000,1.500000,5.500000
3424,0.000000,1.500000,5.500000
3425,0.500000,1.500000,5.500000
3426,1.000000,1.500000,5.500000
3427,1.500000,1.500000,5.500000
3428,2.000000,1.500000,5.500000
3429,2.500000,1.500000,5.500000
3430,3.000000,1.500000,5.500000
3431,3.500000,1.500000,5.500000
3432,4.000000,1.500000,5.500000
3433,4.500000,1.500000,5.500000
3434,5.000000,1.500000,5.500000
3435,5.500000,1.500000,5.500000
3436,6.000000,1.500000,5.500000
3437,6.500000,1.500000,5.500000
3438,7.000000,1.500000,5.500000
3439,7.500000,1.500000,5.500000
3440,8.000000,1.500000,5.500000
3441,8.500000,1.500000,5.500000
3442,9.000000,1.500000,5.500000
3443,9.500000,1.500000,5.500000
3444,10.000000,1.500000,5.500000
3445,-10.000000,0.000000,6.000000
3446,-9.500000,0.000000,6.000000
3447,-9.000000,0.000000,6.000000
3448,-8.500000,0.000000,6.000000
3449,-8.000000,0.000000,6.000000
3450,-7.500000,0.000000,6.000000
3451,-7.000000,0.000000,6.000000
3452,-6.500000,0.000000,6.000000
3453,-6.000000,0.000000,6.000000
3454,-5.500000,0.000000,6.000000
3455,-5.000000,0.000000,6.000000
3456,-4.500000,0.000000,6.000000
3457,-4.000000,0.000000,6.000000
3458,-3.500000,0.000000,6.000000
3459,-3.000000,0.000000,6.000000
3460,-2.500000,0.000000,6.000000
3461,-2.000000,0.000000,6.000000
3462,-1.500000,0.000000,6.000000
3463,-1.000000,0.000000,6.000000
3464,-0.500000,0.000000,6.000000
3465,0.000000,0.000000,6.000000
3466,0.500000,0.000000,6.000000
3467,1.000000,0.000000,6.000000
3468,1.500000,0.000000,6.000000
3469,2.000000,0.000000,6.000000
3470,2.500000,0.000000,6.000000
3471,3.000000,0.000000,6.000000
3472,3.500000,0.000000,6.000000
3473,4.000000,0.000000,6.000000
3474,4.500000,0.000000,6.000000
3475,5.000000,0.000000,6.000000
3476,5.500000,0.000000,6.000000
3477,6.000000,0.000000,6.000000
3478,6.500000,0.000000,6.000000
3479,7.000000,0.000000,6.000000
3480,7.500000,0.000000,6.000000
3481,8.000000,0.000000,6.000000
3482,8.500000,0.000000,6.000000
3483,9.000000,0.000000,6.000000
3484,9.500000,0.000000,6.000000
3485,10.000000,0.000000,6.000000
3486,-10.000000,0.250000,6.000000
3487,-9.500000,0.250000,6.000000
3488,-9.000000,0.250000,6.000000
3489,-8.500000,0.250000,6.000000
3490,-8.000000,0.250000,6.000000
3491,-7.500000,0.250000,6.000000
3492,-7.000000,0.250000,6.000000
3493,-6.500000,0.250000,6.000000
3494,-6.000000,0.250000,6.000000
3495,-5.500000,0.250000,6.000000
3496,-5.000000,0.250000,6.000000
3497,-4.500000,0.250000,6.000000
3498,-4.000000,0.250000,6.000000
3499,-3.500000,0.250000,6.000000
3500,-3.000000,0.250000,6.000000
3501,-2.500000,0.250000,6.000000
3502,-2.000000,0.250000,6.000000
3503,-1.500000,0.250000,6.000000
3504,-1.000000,0.250000,6.000000
3505,-0.500000,0.250000,6.000000
3506,0.000000,0.250000,6.000000
3507,0.500000,0.250000,6.000000
3508,1.000000,0.250000,6.000000
3509,1.500000,0.250000,6.000000
3510,2.000000,0.250000,6.000000
3511,2.500000,0.250000,6.000000
3512,3.000000,0.250000,6.000000
3513,3.500000,0.250000,6.000000
3514,4.000000,0.250000,6.000000
3515,4.500000,0.250000,6.000000
3516,5.000000,0.250000,6.000000
3517,5.500000,0.250000,6.000000
3518,6.000000,0.250000,6.000000
3519,6.500000,0.250000,6.000000
3520,7.000000,0.250000,6.000000
3521,7.500000,0.250000,6.000000
3522,8.000000,0.250000,6.000000
3523,8.500000,0.250000,6.000000
3524,9.000000,0.250000,6.000000
3525,9.500000,0.250000,6.000000
3526,10.000000,0.250000,6.000000
3527,-10.000000,0.500000,6.000000
3528,-9.500000,0.500000,6.000000
3529,-9.000000,0.500000,6.000000
3530,-8.500000,0.500000,6.000000
3531,-8.000000,0.500000,6.000000
3532,-7.500000,0.500000,6.000000
3533,-7.000000,0.500000,6.000000
3534,-6.500000,0.500000,6.000000
3535,-6.000000,0.500000,6.000000
3536,-5.500000,0.500000,6.000000
3537,-5.000000,0.500000,6.000000
3538,-4.500000,0.500000,6.000000
3539,-4.000000,0.500000,6.000000
3540,-3.500000,0.500000,6.000000
3541,-3.000000,0.500000,6.000000
3542,-2.500000,0.500000,6.000000
3543,-2.000000,0.500000,6.000000
3544,-1.500000,0.500000,6.000000
3545,-1.000000,0.500000,6.000000
3546,-0.500000,0.500000,6.000000
3547,0.000000,0.500000,6.000000
3548,0.500000,0.500000,6.000000
3549,1.000000,0.500000,6.000000
3550,1.500000,0.500000,6.000000
3551,2.000000,0.500000,6.000000
3552,2.500000,0.500000,6.000000
3553,3.000000,0.500000,6.000000
3554,3.500000,0.500000,6.000000
3555,4.000000,0.500000,6.000000
3556,4.500000,0.500000,6.000000
3557,5.000000,0.500000,6.000000
3558,5.500000,0.500000,6.000000
3559,6.000000,0.500000,6.000000
3560,6.500000,0.500000,6.000000
3561,7.000000,0.500000,6.000000
3562,7.500000,0.500000,6.000000
3563,8.000000,0.500000,6.000000
3564,8.500000,0.500000,6.000000
3565,9.000000,0.500000,6.000000
3566,9.500000,0.500000,6.000000
3567,10.000000,0.500000,6.000000
3568,-10.000000,0.750000,6.000000
3569,-9.500000,0.750000,6.000000
3570,-9.000000,0.750000,6.000000
3571,-8.500000,0.750000,6.000000
3572,-8.000000,0.750000,6.000000
3573,-7.500000,0.750000,6.000000
3574,-7.000000,0.750000,6.000000
3575,-6.500000,0.750000,6.000000
3576,-6.000000,0.750000,6.000000
3577,-5.500000,0.750000,6.000000
3578,-5.000000,0.750000,6.000000
3579,-4.500000,0.750000,6.000000
3580,-4.000000,0.750000,6.000000
3581,-3.500000,0.750000,6.000000
3582,-3.000000,0.750000,6.000000
3583,-2.500000,0.750000,6.000000
3584,-2.000000,0.750000,6.000000
3585,-1.500000,0.750000,6.000000
3586,-1.000000,0.750000,6.000000
3587,-0.500000,0.750000,6.000000
3588,0.000000,0.750000,6.000000
3589,0.500000,0.750000,6.000000
3590,1.000000,0.750000,6.000000
3591,1.500000,0.750000,6.000000
3592,2.000000,0.750000,6.000000
3593,2.500000,0.750000,6.000000
3594,3.000000,0.750000,6.000000
3595,3.500000,0.750000,6.000000
3596,4.000000,0.750000,6.000000
3597,4.500000,0.750000,6.000000
3598,5.000000,0.750000,6.000000
3599,5.500000,0.750000,6.000000
3600,6.000000,0.750000,6.000000
3601,6.500000,0.750000,6.000000
3602,7.000000,0.750000,6.000000
3603,7.500000,0.750000,6.000000
3604,8.000000,0.750000,6.000000
3605,8.500000,0.750000,6.000000
3606,9.000000,0.750000,6.000000
3607,9.500000,0.750000,6.000000
3608,10.000000,0.750000,6.000000
3609,-10.000000,1.000000,6.000000
3610,-9.500000,1.000000,6.000000
3611,-9.000000,1.000000,6.000000
3612,-8.500000,1.000000,6.000000
3613,-8.000000,1.000000,6.000000
3614,-7.500000,1.000000,6.000000
3615,-7.000000,1.000000,6.000000
3616,-6.500000,1.000000,6.000000
3617,-6.000000,1.000000,6.000000
3618,-5.500000,1.000000,6.000000
3619,-5.000000,1.000000,6.000000
3620,-4.500000,1.000000,6.000000
3621,-4.000000,1.000000,6.000000
3622,-3.500000,1.000000,6.000000
3623,-3.000000,1.000000,6.000000
3624,-2.500000,1.000000,6.000000
3625,-2.000000,1.000000,6.000000
3626,-1.500000,1.000000,6.000000
3627,-1.000000,1.000000,6.000000
3628,-0.500000,1.000000,6.000000
3629,0.000000,1.000000,6.000000
3630,0.500000,1.000000,6.000000
3631,1.000000,1.000000,6.000000
3632,1.500000,1.000000,6.000000
3633,2.000000,1.000000,6.000000
3634,2.500000,1.000000,6.000000
3635,3.000000,1.000000,6.000000
3636,3.500000,1.000000,6.000000
3637,4.000000,1.000000,6.000000
3638,4.500000,1.000000,6.000000
3639,5.000000,1.000000,6.000000
3640,5.500000,1.000000,6.000000
3641,6.000000,1.000000,6.000000
3642,6.500000,1.000000,6.000000
3643,7.000000,1.000000,6.000000
3644,7.500000,1.000000,6.000000
3645,8.000000,1.000000,6.000000
3646,8.500000,1.000000,6.000000
3647,9.000000,1.000000,6.000000
3648,9.500000,1.000000,6.000000
3649,10.000000,1.000000,6.000000
3650,-10.000000,1.250000,6.000000
3651,-9.500000,1.250000,6.000000
3652,-9.000000,1.250000,6.000000
3653,-8.500000,1.250000,6.000000
3654,-8.000000,1.250000,6.000000
3655,-7.500000,1.250000,6.000000
3656,-7.000000,1.250000,6.000000
3657,-6.500000,1.250000,6.000000
3658,-6.000000,1.250000,6.000000
3659,-5.500000,1.250000,6.000000
3660,-5.000000,1.250000,6.000000
3661,-4.500000,1.250000,6.000000
3662,-4.000000,1.250000,6.000000
3663,-3.500000,1.250000,6.000000
3664,-3.000000,1.250000,6.000000
3665,-2.500000,1.250000,6.000000
3666,-2.000000,1.250000,6.000000
3667,-1.500000,1.250000,6.000000
3668,-1.000000,1.250000,6.000000
3669,-0.500000,1.250000,6.000000
3670,0.000000,1.250000,6.000000
3671,0.500000,1.250000,6.000000
3672,1.000000,1.250000,6.000000
3673,1.500000,1.250000,6.000000
3674,2.000000,1.250000,6.000000
3675,2.500000,1.250000,6.000000
3676,3.000000,1.250000,6.000000
3677,3.500000,1.250000,6.000000
3678,4.000000,1.250000,6.000000
3679,4.500000,1.250000,6.000000
3680,5.000000,1.250000,6.000000
3681,5.500000,1.250000,6.000000
3682,6.000000,1.250000,6.000000
3683,6.500000,1.250000,6.000000
3684,7.000000,1.250000,6.000000
3685,7.500000,1.250000,6.000000
3686,8.000000,1.250000,6.000000
3687,8.500000,1.250000,6.000000
3688,9.000000,1.250000,6.000000
3689,9.500000,1.250000,6.000000
3690,10.000000,1.250000,6.000000
3691,-10.000000,1.500000,6.000000
3692,-9.500000,1.500000,6.000000
3693,-9.000000,1.500000,6.000000
3694,-8.500000,1.500000,6.000000
3695,-8.000000,1.500000,6.000000
3696,-7.500000,1.500000,6.000000
3697,-7.000000,1.500000,6.000000
3698,-6.500000,1.500000,6.000000
3699,-6.000000,1.500000,6.000000
3700,-5.500000,1.500000,6.000000
3701,-5.000000,1.500000,6.000000
3702,-4.500000,1.500000,6.000000
3703,-4.000000,1.500000,6.000000
3704,-3.500000,1.500000,6.000000
3705,-3.000000,1.500000,6.000000
3706,-2.500000,1.500000,6.000000
3707,-2.000000,1.500000,6.000000
3708,-1.500000,1.500000,6.000000
3709,-1.000000,1.500000,6.000000
3710,-0.500000,1.500000,6.000000
3711,0.000000,1.500000,6.000000
3712,0.500000,1.500000,6.000000
3713,1.000000,1.500000,6.000000
3714,1.500000,1.500000,6.000000
3715,2.000000,1.500000,6.000000
3716,2.500000,1.500000,6.000000
3717,3.000000,1.500000,6.000000
3718,3.500000,1.500000,6.000000
3719,4.000000,1.500000,6.000000
3720,4.500000,1.500000,6.000000
3721,5.000000,1.500000,6.000000
3722,5.500000,1.500000,6.000000
3723,6.000000,1.500000,6.000000
3724,6.500000,1.500000,6.000000
3725,7.000000,1.500000,6.000000
3726,7.500000,1.500000,6.000000
3727,8.000000,1.500000,6.000000
3728,8.500000,1.500000,6.000000
3729,9.000000,1.500000,6.000000
3730,9.500000,1.500000,6.000000
3731,10.000000,1.500000,6.000000
3732,-10.000000,0.000000,6.500000
3733,-9.500000,0.000000,6.500000
3734,-9.000000,0.000000,6.500000
3735,-8.500000,0.000000,6.500000
3736,-8.000000,0.000000,6.500000
3737,-7.500000,0.000000,6.500000
3738,-7.000000,0.000000,6.500000
3739,-6.500000,0.000000,6.500000
3740,-6.000000,0.000000,6.500000
3741,-5.500000,0.000000,6.500000
3742,-5.000000,0.000000,6.500000
3743,-4.500000,0.000000,6.500000
3744,-4.000000,0.000000,6.500000
3745,-3.500000,0.000000,6.500000
3746,-3.000000,0.000000,6.500000
3747,-2.500000,0.000000,6.500000
3748,-2.000000,0.000000,6.500000
3749,-1.500000,0.000000,6.500000
3750,-1.000000,0.000000,6.500000
3751,-0.500000,0.000000,6.500000
3752,0.000000,0.000000,6.500000
3753,0.500000,0.000000,6.500000
3754,1.000000,0.000000,6.500000
3755,1.500000,0.000000,6.500000
3756,2.000000,0.000000,6.500000
3757,2.500000,0.000000,6.500000
3758,3.000000,0.000000,6.500000
3759,3.500000,0.000000,6.500000
3760,4.000000,0.000000,6.500000
3761,4.500000,0.000000,6.500000
3762,5.000000,0.000000,6.500000
3763,5.500000,0.000000,6.500000
3764,6.000000,0.000000,6.500000
3765,6.500000,0.000000,6.500000
3766,7.000000,0.000000,6.500000
3767,7.500000,0.000000,6.500000
3768,8.000000,0.000000,6.500000
3769,8.500000,0.000000,6.500000
3770,9.000000,0.000000,6.500000
3771,9.500000,0.000000,6.500000
3772,10.000000,0.000000,6.500000
3773,-10.000000,0.250000,6.500000
3774,-9.500000,0.250000,6.500000
3775,-9.000000,0.250000,6.500000
3776,-8.500000,0.250000,6.500000
3777,-8.000000,0.250000,6.500000
3778,-7.500000,0.250000,6.500000
3779,-7.000000,0.250000,6.500000
3780,-6.500000,0.250000,6.500000
3781,-6.000000,0.250000,6.500000
3782,-5.500000,0.250000,6.500000
3783,-5.000000,0.250000,6.500000
3784,-4.500000,0.250000,6.500000
3785,-4.000000,0.250000,6.500000
3786,-3.500000,0.250000,6.500000
3787,-3.000000,0.250000,6.500000
3788,-2.500000,0.250000,6.500000
3789,-2.000000,0.250000,6.500000
3790,-1.500000,0.250000,6.500000
3791,-1.000000,0.250000,6.500000
3792,-0.500000,0.250000,6.500000
3793,0.000000,0.250000,6.500000
3794,0.500000,0.250000,6.500000
3795,1.000000,0.250000,6.500000
3796,1.500000,0.250000,6.500000
3797,2.000000,0.250000,6.500000
3798,2.500000,0.250000,6.500000
3799,3.000000,0.250000,6.500000
3800,3.500000,0.250000,6.500000
3801,4.000000,0.250000,6.500000
3802,4.500000,0.250000,6.500000
3803,5.000000,0.250000,6.500000
3804,5.500000,0.250000,6.500000
3805,6.000000,0.250000,6.500000
3806,6.500000,0.250000,6.500000
3807,7.000000,0.250000,6.500000
3808,7.500000,0.250000,6.500000
3809,8.000000,0.250000,6.500000
3810,8.500000,0.250000,6.500000
3811,9.000000,0.250000,6.500000
3812,9.500000,0.250000,6.500000
3813,10.000000,0.250000,6.500000
3814,-10.000000,0.500000,6.500000
3815,-9.500000,0.500000,6.500000
3816,-9.000000,0.500000,6.500000
3817,-8.500000,0.500000,6.500000
3818,-8.000000,0.500000,6.500000
3819,-7.500000,0.500000,6.500000
3820,-7.000000,0.500000,6.500000
3821,-6.500000,0.500000,6.500000
3822,-6.000000,0.500000,6.500000
3823,-5.500000,0.500000,6.500000
3824,-5.000000,0.500000,6.500000
3825,-4.500000,0.500000,6.500000
3826,-4.000000,0.500000,6.500000
3827,-3.500000,0.500000,6.500000
3828,-3.000000,0.500000,6.500000
3829,-2.500000,0.500000,6.500000
3830,-2.000000,0.500000,6.500000
3831,-1.500000,0.500000,6.500000
3832,-1.000000,0.500000,6.500000
3833,-0.500000,0.500000,6.500000
3834,0.000000,0.500000,6.500000
3835,0.500000,0.500000,6.500000
3836,1.000000,0.500000,6.500000
3837,1.500000,0.500000,6.500000
3838,2.000000,0.500000,6.500000
3839,2.500000,0.500000,6.500000
3840,3.000000,0.500000,6.500000
3841,3.500000,0.500000,6.500000
3842,4.000000,0.500000,6.500000
3843,4.500000,0.500000,6.500000
3844,5.000000,0.500000,6.500000
3845,5.500000,0.500000,6.500000
3846,6.000000,0.500000,6.500000
3847,6.500000,0.500000,6.500000
3848,7.000000,0.500000,6.500000
3849,7.500000,0.500000,6.500000
3850,8.000000,0.500000,6.500000
3851,8.500000,0.500000,6.500000
3852,9.000000,0.500000,6.500000
3853,9.500000,0.500000,6.500000
3854,10.000000,0.500000,6.500000
3855,-10.000000,0.750000,6.500000
3856,-9.500000,0.750000,6.500000
3857,-9.000000,0.750000,6.500000
3858,-8.500000,0.750000,6.500000
3859,-8.000000,0.750000,6.500000
3860,-7.500000,0.750000,6.500000
3861,-7.000000,0.750000,6.500000
3862,-6.500000,0.750000,6.500000
3863,-6.000000,0.750000,6.500000
3864,-5.500000,0.750000,6.500000
3865,-5.000000,0.750000,6.500000
3866,-4.500000,0.750000,6.500000
3867,-4.000000,0.750000,6.500000
3868,-3.500000,0.750000,6.500000
3869,-3.000000,0.750000,6.500000
3870,-2.500000,0.750000,6.500000
3871,-2.000000,0.750000,6.500000
3872,-1.500000,0.750000,6.500000
3873,-1.000000,0.750000,6.500000
3874,-0.500000,0.750000,6.500000
3875,0.000000,0.750000,6.500000
3876,0.500000,0.750000,6.500000
3877,1.000000,0.750000,6.500000
3878,1.500000,0.750000,6.500000
3879,2.000000,0.750000,6.500000
3880,2.500000,0.750000,6.500000
3881,3.000000,0.750000,6.500000
3882,3.500000,0.750000,6.500000
3883,4.000000,0.750000,6.500000
3884,4.500000,0.750000,6.500000
3885,5.000000,0.750000,6.500000
3886,5.500000,0.750000,6.500000
3887,6.000000,0.750000,6.500000
3888,6.500000,0.750000,6.500000
3889,7.000000,0.750000,6.500000
3890,7.500000,0.750000,6.500000
3891,8.000000,0.750000,6.500000
3892,8.500000,0.750000,6.500000
3893,9.000000,0.750000,6.500000
3894,9.500000,0.750000,6.500000
3895,10.000000,0.750000,6.500000
3896,-10.000000,1.000000,6.500000
3897,-9.500000,1.000000,6.500000
3898,-9.000000,1.000000,6.500000
3899,-8.500000,1.000000,6.500000
3900,-8.000000,1.000000,6.500000
3901,-7.500000,1.000000,6.500000
3902,-7.000000,1.000000,6.500000
3903,-6.500000,1.000000,6.500000
3904,-6.000000,1.000000,6.500000
3905,-5.500000,1.000000,6.500000
3906,-5.000000,1.000000,6.500000
3907,-4.500000,1.000000,6.500000
3908,-4.000000,1.000000,6.500000
3909,-3.500000,1.000000,6.500000
3910,-3.000000,1.000000,6.500000
3911,-2.500000,1.000000,6.500000
3912,-2.000000,1.000000,6.500000
3913,-1.500000,1.000000,6.500000
3914,-1.000000,1.000000,6.500000
3915,-0.500000,1.000000,6.500000
3916,0.000000,1.000000,6.500000
3917,0.500000,1.000000,6.500000
3918,1.000000,1.000000,6.500000
3919,1.500000,1.000000,6.500000
3920,2.000000,1.000000,6.500000
3921,2.500000,1.000000,6.500000
3922,3.000000,1.000000,6.500000
3923,3.500000,1.000000,6.500000
3924,4.000000,1.000000,6.500000
3925,4.500000,1.000000,6.500000
3926,5.000000,1.000000,6.500000
3927,5.500000,1.000000,6.500000
3928,6.000000,1.000000,6.500000
3929,6.500000,1.000000,6.500000
3930,7.000000,1.000000,6.500000
3931,7.500000,1.000000,6.500000
3932,8.000000,1.000000,6.500000
3933,8.500000,1.000000,6.500000
3934,9.000000,1.000000,6.500000
3935,9.500000,1.000000,6.500000
3936,10.000000,1.000000,6.500000
3937,-10.000000,1.250000,6.500000
3938,-9.500000,1.250000,6.500000
3939,-9.000000,1.250000,6.500000
3940,-8.500000,1.250000,6.500000
3941,-8.000000,1.250000,6.500000
3942,-7.500000,1.250000,6.500000
3943,-7.000000,1.250000,6.500000
3944,-6.500000,1.250000,6.500000
3945,-6.000000,1.250000,6.500000
3946,-5.500000,1.250000,6.500000
3947,-5.000000,1.250000,6.500000
3948,-4.500000,1.250000,6.500000
3949,-4.000000,1.250000,6.500000
3950,-3.500000,1.250000,6.500000
3951,-3.000000,1.250000,6.500000
3952,-2.500000,1.250000,6.500000
3953,-2.000000,1.250000,6.500000
3954,-1.500000,1.250000,6.500000
3955,-1.000000,1.250000,6.500000
3956,-0.500000,1.250000,6.500000
3957,0.000000,1.250000,6.500000
3958,0.500000,1.250000,6.500000
3959,1.000000,1.250000,6.500000
3960,1.500000,1.250000,6.500000
3961,2.000000,1.250000,6.500000
3962,2.500000,1.250000,6.500000
3963,3.000000,1.250000,6.500000
3964,3.500000,1.250000,6.500000
3965,4.000000,1.250000,6.500000
3966,4.500000,1.250000,6.500000
3967,5.000000,1.250000,6.500000
3968,5.500000,1.250000,6.500000
3969,6.000000,1.250000,6.500000
3970,6.500000,1.250000,6.500000
3971,7.000000,1.250000,6.500000
3972,7.500000,1.250000,6.500000
3973,8.000000,1.250000,6.500000
3974,8.500000,1.250000,6.500000
3975,9.000000,1.250000,6.500000
3976,9.500000,1.250000,6.500000
3977,10.000000,1.250000,6.500000
3978,-10.000000,1.500000,6.500000
3979,-9.500000,1.500000,6.500000
3980,-9.000000,1.500000,6.500000
3981,-8.500000,1.500000,6.500000
3982,-8.000000,1.500000,6.500000
3983,-7.500000,1.500000,6.500000
3984,-7.000000,1.500000,6.500000
3985,-6.500000,1.500000,6.500000
3986,-6.000000,1.500000,6.500000
3987,-5.500000,1.500000,6.500000
3988,-5.000000,1.500000,6.500000
3989,-4.500000,1.500000,6.500000
3990,-4.000000,1.500000,6.500000
3991,-3.500000,1.500000,6.500000
3992,-3.000000,1.500000,6.500000
3993,-2.500000,1.500000,6.500000
3994,-2.000000,1.500000,6.500000
3995,-1.500000,1.500000,6.500000
3996,-1.000000,1.500000,6.500000
3997,-0.500000,1.500000,6.500000
3998,0.000000,1.500000,6.500000
3999,0.500000,1.500000,6.500000
4000,1.000000,1.500000,6.500000
4001,1.500000,1.500000,6.500000
4002,2.000000,1.500000,6.500000
4003,2.500000,1.500000,6.500000
4004,3.000000,1.500000,6.500000
4005,3.500000,1.500000,6.500000
4006,4.000000,1.500000,6.500000
4007,4.500000,1.500000,6.500000
4008,5.000000,1.500000,6.500000
4009,5.500000,1.500000,6.500000
4010,6.000000,1.500000,6.500000
4011,6.500000,1.500000,6.500000
4012,7.000000,1.500000,6.500000
4013,7.500000,1.500000,6.500000
4014,8.000000,1.500000,6.500000
4015,8.500000,1.500000,6.500000
4016,9.000000,1.500000,6.500000
4017,9.500000,1.500000,6.500000
4018,10.000000,1.500000,6.500000
4019,-10.000000,0.000000,7.000000
4020,-9.500000,0.000000,7.000000
4021,-9.000000,0.000000,7.000000
4022,-8.500000,0.000000,7.000000
4023,-8.000000,0.000000,7.000000
4024,-7.500000,0.000000,7.000000
4025,-7.000000,0.000000,7.000000
4026,-6.500000,0.000000,7.000000
4027,-6.000000,0.000000,7.000000
4028,-5.500000,0.000000,7.000000
4029,-5.000000,0.000000,7.000000
4030,-4.500000,0.000000,7.000000
4031,-4.000000,0.000000,7.000000
4032,-3.500000,0.000000,7.000000
4033,-3.000000,0.000000,7.000000
4034,-2.500000,0.000000,7.000000
4035,-2.000000,0.000000,7.000000
4036,-1.500000,0.000000,7.000000
4037,-1.000000,0.000000,7.000000
4038,-0.500000,0.000000,7.000000
4039,0.000000,0.000000,7.000000
4040,0.500000,0.000000,7.000000
4041,1.000000,0.000000,7.000000
4042,1.500000,0.000000,7.000000
4043,2.000000,0.000000,7.000000
4044,2.500000,0.000000,7.000000
4045,3.000000,0.000000,7.000000
4046,3.500000,0.000000,7.000000
4047,4.000000,0.000000,7.000000
4048,4.500000,0.000000,7.000000
4049,5.000000,0.000000,7.000000
4050,5.500000,0.000000,7.000000
4051,6.000000,0.000000,7.000000
4052,6.500000,0.000000,7.000000
4053,7.000000,0.000000,7.000000
4054,7.500000,0.000000,7.000000
4055,8.000000,0.000000,7.000000
4056,8.500000,0.000000,7.000000
4057,9.000000,0.000000,7.000000
4058,9.500000,0.000000,7.000000
4059,10.000000,0.000000,7.000000
4060,-10.000000,0.250000,7.000000
4061,-9.500000,0.250000,7.000000
4062,-9.000000,0.250000,7.000000
4063,-8.500000,0.250000,7.000000
4064,-8.000000,0.250000,7.000000
4065,-7.500000,0.250000,7.000000
4066,-7.000000,0.250000,7.000000
4067,-6.500000,0.250000,7.000000
4068,-6.000000,0.250000,7.000000
4069,-5.500000,0.250000,7.000000
4070,-5.000000,0.250000,7.000000
4071,-4.500000,0.250000,7.000000
4072,-4.000000,0.250000,7.000000
4073,-3.500000,0.250000,7.000000
4074,-3.000000,0.250000,7.000000
4075,-2.500000,0.250000,7.000000
4076,-2.000000,0.250000,7.000000
4077,-1.500000,0.250000,7.000000
4078,-1.000000,0.250000,7.000000
4079,-0.500000,0.250000,7.000000
4080,0.000000,0.250000,7.000000
4081,0.500000,0.250000,7.000000
4082,1.000000,0.250000,7.000000
4083,1.500000,0.250000,7.000000
4084,2.000000,0.250000,7.000000
4085,2.500000,0.250000,7.000000
4086,3.000000,0.250000,7.000000
4087,3.500000,0.250000,7.000000
4088,4.000000,0.250000,7.000000
4089,4.500000,0.250000,7.000000
4090,5.000000,0.250000,7.000000
4091,5.500000,0.250000,7.000000
4092,6.000000,0.250000,7.000000
4093,6.500000,0.250000,7.000000
4094,7.000000,0.250000,7.000000
4095,7.500000,0.250000,7.000000
4096,8.000000,0.250000,7.000000
4097,8.500000,0.250000,7.000000
4098,9.000000,0.250000,7.000000
4099,9.500000,0.250000,7.000000
4100,10.000000,0.250000,7.000000
4101,-10.000000,0.500000,7.000000
4102,-9.500000,0.500000,7.000000
4103,-9.000000,0.500000,7.000000
4104,-8.500000,0.500000,7.000000
4105,-8.000000,0.500000,7.000000
4106,-7.500000,0.500000,7.000000
4107,-7.000000,0.500000,7.000000
4108,-6.500000,0.500000,7.000000
4109,-6.000000,0.500000,7.000000
4110,-5.500000,0.500000,7.000000
4111,-5.000000,0.500000,7.000000
4112,-4.500000,0.500000,7.000000
4113,-4.000000,0.500000,7.000000
4114,-3.500000,0.500000,7.000000
4115,-3.000000,0.500000,7.000000
4116,-2.500000,0.500000,7.000000
4117,-2.000000,0.500000,7.000000
4118,-1.500000,0.500000,7.000000
4119,-1.000000,0.500000,7.000000
4120,-0.500000,0.500000,7.000000
4121,0.000000,0.500000,7.000000
4122,0.500000,0.500000,7.000000
4123,1.000000,0.500000,7.000000
4124,1.500000,0.500000,7.000000
4125,2.000000,0.500000,7.000000
4126,2.500000,0.500000,7.000000
4127,3.000000,0.500000,7.000000
4128,3.500000,0.500000,7.000000
4129,4.000000,0.500000,7.000000
4130,4.500000,0.500000,7.000000
4131,5.000000,0.500000,7.000000
4132,5.500000,0.500000,7.000000
4133,6.000000,0.500000,7.000000
4134,6.500000,0.500000,7.000000
4135,7.000000,0.500000,7.000000
4136,7.500000,0.500000,7.000000
4137,8.000000,0.500000,7.000000
4138,8.500000,0.500000,7.000000
4139,9.000000,0.500000,7.000000
4140,9.500000,0.500000,7.000000
4141,10.000000,0.500000,7.000000
4142,-10.000000,0.750000,7.000000
4143,-9.500000,0.750000,7.000000
4144,-9.000000,0.750000,7.000000
4145,-8.500000,0.750000,7.000000
4146,-8.000000,0.750000,7.000000
4147,-7.500000,0.750000,7.000000
4148,-7.000000,0.750000,7.000000
4149,-6.500000,0.750000,7.000000
4150,-6.000000,0.750000,7.000000
4151,-5.500000,0.750000,7.000000
4152,-5.000000,0.750000,7.000000
4153,-4.500000,0.750000,7.000000
4154,-4.000000,0.750000,7.000000
4155,-3.500000,0.750000,7.000000
4156,-3.000000,0.750000,7.000000
4157,-2.500000,0.750000,7.000000
4158,-2.000000,0.750000,7.000000
4159,-1.500000,0.750000,7.000000
4160,-1.000000,0.750000,7.000000
4161,-0.500000,0.750000,7.000000
4162,0.000000,0.750000,7.000000
4163,0.500000,0.750000,7.000000
4164,1.000000,0.750000,7.000000
4165,1.500000,0.750000,7.000000
4166,2.000000,0.750000,7.000000
4167,2.500000,0.750000,7.000000
4168,3.000000,0.750000,7.000000
4169,3.500000,0.750000,7.000000
4170,4.000000,0.750000,7.000000
4171,4.500000,0.750000,7.000000
4172,5.000000,0.750000,7.000000
4173,5.500000,0.750000,7.000000
4174,6.000000,0.750000,7.000000
4175,6.500000,0.750000,7.000000
4176,7.000000,0.750000,7.000000
4177,7.500000,0.750000,7.000000
4178,8.000000,0.750000,7.000000
4179,8.500000,0.750000,7.000000
4180,9.000000,0.750000,7.000000
4181,9.500000,0.750000,7.000000
4182,10.000000,0.750000,7.000000
4183,-10.000000,1.000000,7.000000
4184,-9.500000,1.000000,7.000000
4185,-9.000000,1.000000,7.000000
4186,-8.500000,1.000000,7.000000
4187,-8.000000,1.000000,7.000000
4188,-7.500000,1.000000,7.000000
4189,-7.000000,1.000000,7.000000
4190,-6.500000,1.000000,7.000000
4191,-6.000000,1.000000,7.000000
4192,-5.500000,1.000000,7.000000
4193,-5.000000,1.000000,7.000000
4194,-4.500000,1.000000,7.000000
4195,-4.000000,1.000000,7.000000
4196,-3.500000,1.000000,7.000000
4197,-3.000000,1.000000,7.000000
4198,-2.500000,1.000000,7.000000
4199,-2.000000,1.000000,7.000000
4200,-1.500000,1.000000,7.000000
4201,-1.000000,1.000000,7.000000
4202,-0.500000,1.000000,7.000000
4203,0.000000,1.000000,7.000000
4204,0.500000,1.000000,7.000000
4205,1.000000,1.000000,7.000000
4206,1.500000,1.000000,7.000000
4207,2.000000,1.000000,7.000000
4208,2.500000,1.000000,7.000000
4209,3.000000,1.000000,7.000000
4210,3.500000,1.000000,7.000000
4211,4.000000,1.000000,7.000000
4212,4.500000,1.000000,7.000000
4213,5.000000,1.000000,7.000000
4214,5.500000,1.000000,7.000000
4215,6.000000,1.000000,7.000000
4216,6.500000,1.000000,7.000000
4217,7.000000,1.000000,7.000000
4218,7.500000,1.000000,7.000000
4219,8.000000,1.000000,7.000000
4220,8.500000,1.000000,7.000000
4221,9.000000,1.000000,7.000000
4222,9.500000,1.000000,7.000000
4223,10.000000,1.000000,7.000000
4224,-10.000000,1.250000,7.000000
4225,-9.500000,1.250000,7.000000
4226,-9.000000,1.250000,7.000000
4227,-8.500000,1.250000,7.000000
4228,-8.000000,1.250000,7.000000
4229,-7.500000,1.250000,7.000000
4230,-7.000000,1.250000,7.000000
4231,-6.500000,1.250000,7.000000
4232,-6.000000,1.250000,7.000000
4233,-5.500000,1.250000,7.000000
4234,-5.000000,1.250000,7.000000
4235,-4.500000,1.250000,7.000000
4236,-4.000000,1.250000,7.000000
4237,-3.500000,1.250000,7.000000
4238,-3.000000,1.250000,7.000000
4239,-2.500000,1.250000,7.000000
4240,-2.000000,1.250000,7.000000
4241,-1.500000,1.250000,7.000000
4242,-1.000000,1.250000,7.000000
4243,-0.500000,1.250000,7.000000
4244,0.000000,1.250000,7.000000
4245,0.500000,1.250000,7.000000
4246,1.000000,1.250000,7.000000
4247,1.500000,1.250000,7.000000
4248,2.000000,1.250000,7.000000
4249,2.500000,1.250000,7.000000
4250,3.000000,1.250000,7.000000
4251,3.500000,1.250000,7.000000
4252,4.000000,1.250000,7.000000
4253,4.500000,1.250000,7.000000
4254,5.000000,1.250000,7.000000
4255,5.500000,1.250000,7.000000
4256,6.000000,1.250000,7.000000
4257,6.500000,1.250000,7.000000
4258,7.000000,1.250000,7.000000
4259,7.500000,1.250000,7.000000
4260,8.000000,1.250000,7.000000
4261,8.500000,1.250000,7.000000
4262,9.000000,1.250000,7.000000
4263,9.500000,1.250000,7.000000
4264,10.000000,1.250000,7.000000
4265,-10.000000,1.500000,7.000000
4266,-9.500000,1.500000,7.000000
4267,-9.000000,1.500000,7.000000
4268,-8.500000,1.500000,7.000000
4269,-8.000000,1.500000,7.000000
4270,-7.500000,1.500000,7.000000
4271,-7.000000,1.500000,7.000000
4272,-6.500000,1.500000,7.000000
4273,-6.000000,1.500000,7.000000
4274,-5.500000,1.500000,7.000000
4275,-5.000000,1.500000,7.000000
4276,-4.500000,1.500000,7.000000
4277,-4.000000,1.500000,7.000000
4278,-3.500000,1.500000,7.000000
4279,-3.000000,1.500000,7.000000
4280,-2.500000,1.500000,7.000000
4281,-2.000000,1.500000,7.000000
4282,-1.500000,1.500000,7.000000
4283,-1.000000,1.500000,7.000000
4284,-0.500000,1.500000,7.000000
4285,0.000000,1.500000,7.000000
4286,0.500000,1.500000,7.000000
4287,1.000000,1.500000,7.000000
4288,1.500000,1.500000,7.000000
4289,2.000000,1.500000,7.000000
4290,2.500000,1.500000,7.000000
4291,3.000000,1.500000,7.000000
4292,3.500000,1.500000,7.000000
4293,4.000000,1.500000,7.000000
4294,4.500000,1.500000,7.000000
4295,5.000000,1.500000,7.000000
4296,5.500000,1.500000,7.000000
4297,6.000000,1.500000,7.000000
4298,6.500000,1.500000,7.000000
4299,7.000000,1.500000,7.000000
4300,7.500000,1.500000,7.000000
4301,8.000000,1.500000,7.000000
4302,8.500000,1.500000,7.000000
4303,9.000000,1.500000,7.000000
4304,9.500000,1.500000,7.000000
4305,10.000000,1.500000,7.000000
4306,-10.000000,0.000000,7.500000
4307,-9.500000,0.000000,7.500000
4308,-9.000000,0.000000,7.500000
4309,-8.500000,0.000000,7.500000
4310,-8.000000,0.000000,7.500000
4311,-7.500000,0.000000,7.500000
4312,-7.000000,0.000000,7.500000
4313,-6.500000,0.000000,7.500000
4314,-6.000000,0.000000,7.500000
4315,-5.500000,0.000000,7.500000
4316,-5.000000,0.000000,7.500000
4317,-4.500000,0.000000,7.500000
4318,-4.000000,0.000000,7.500000
4319,-3.500000,0.000000,7.500000
4320,-3.000000,0.000000,7.500000
4321,-2.500000,0.000000,7.500000
4322,-2.000000,0.000000,7.500000
4323,-1.500000,0.000000,7.500000
4324,-1.000000,0.000000,7.500000
4325,-0.500000,0.000000,7.500000
4326,0.000000,0.000000,7.500000
4327,0.500000,0.000000,7.500000
4328,1.000000,0.000000,7.500000
4329,1.500000,0.000000,7.500000
4330,2.000000,0.000000,7.500000
4331,2.500000,0.000000,7.500000
4332,3.000000,0.000000,7.500000
4333,3.500000,0.000000,7.500000
4334,4.000000,0.000000,7.500000
4335,4.500000,0.000000,7.500000
4336,5.000000,0.000000,7.500000
4337,5.500000,0.000000,7.500000
4338,6.000000,0.000000,7.500000
4339,6.500000,0.000000,7.500000
4340,7.000000,0.000000,7.500000
4341,7.500000,0.000000,7.500000
4342,8.000000,0.000000,7.500000
4343,8.500000,0.000000,7.500000
4344,9.000000,0.000000,7.500000
4345,9.500000,0.000000,7.500000
4346,10.000000,0.000000,7.500000
4347,-10.000000,0.250000,7.500000
4348,-9.500000,0.250000,7.500000
4349,-9.000000,0.250000,7.500000
4350,-8.500000,0.250000,7.500000
4351,-8.000000,0.250000,7.500000
4352,-7.500000,0.250000,7.500000
4353,-7.000000,0.250000,7.500000
4354,-6.500000,0.250000,7.500000
4355,-6.000000,0.250000,7.500000
4356,-5.500000,0.250000,7.500000
4357,-5.000000,0.250000,7.500000
4358,-4.500000,0.250000,7.500000
4359,-4.000000,0.250000,7.500000
4360,-3.500000,0.250000,7.500000
4361,-3.000000,0.250000,7.500000
4362,-2.500000,0.250000,7.500000
4363,-2.000000,0.250000,7.500000
4364,-1.500000,0.250000,7.500000
4365,-1.000000,0.250000,7.500000
4366,-0.500000,0.250000,7.500000
4367,0.000000,0.250000,7.500000
4368,0.500000,0.250000,7.500000
4369,1.000000,0.250000,7.500000
4370,1.500000,0.250000,7.500000
4371,2.000000,0.250000,7.500000
4372,2.500000,0.250000,7.500000
4373,3.000000,0.250000,7.500000
4374,3.500000,0.250000,7.500000
4375,4.000000,0.250000,7.500000
4376,4.500000,0.250000,7.500000
4377,5.000000,0.250000,7.500000
4378,5.500000,0.250000,7.500000
4379,6.000000,0.250000,7.500000
4380,6.500000,0.250000,7.500000
4381,7.000000,0.250000,7.500000
4382,7.500000,0.250000,7.500000
4383,8.000000,0.250000,7.500000
4384,8.500000,0.250000,7.500000
4385,9.000000,0.250000,7.500000
4386,9.500000,0.250000,7.500000
4387,10.000000,0.250000,7.500000
4388,-10.000000,0.500000,7.500000
4389,-9.500000,0.500000,7.500000
4390,-9.000000,0.500000,7.500000
4391,-8.500000,0.500000,7.500000
4392,-8.000000,0.500000,7.500000
4393,-7.500000,0.500000,7.500000
4394,-7.000000,0.500000,7.500000
4395,-6.500000,0.500000,7.500000
4396,-6.000000,0.500000,7.500000
4397,-5.500000,0.500000,7.500000
4398,-5.000000,0.500000,7.500000
4399,-4.500000,0.500000,7.500000
4400,-4.000000,0.500000,7.500000
4401,-3.500000,0.500000,7.500000
4402,-3.000000,0.500000,7.500000
4403,-2.500000,0.500000,7.500000
4404,-2.000000,0.500000,7.500000
4405,-1.500000,0.500000,7.500000
4406,-1.000000,0.500000,7.500000
4407,-0.500000,0.500000,7.500000
4408,0.000000,0.500000,7.500000
4409,0.500000,0.500000,7.500000
4410,1.000000,0.500000,7.500000
4411,1.500000,0.500000,7.500000
4412,2.000000,0.500000,7.500000
4413,2.500000,0.500000,7.500000
4414,3.000000,0.500000,7.500000
4415,3.500000,0.500000,7.500000
4416,4.000000,0.500000,7.500000
4417,4.500000,0.500000,7.500000
4418,5.000000,0.500000,7.500000
4419,5.500000,0.500000,7.500000
4420,6.000000,0.500000,7.500000
4421,6.500000,0.500000,7.500000
4422,7.000000,0.500000,7.500000
4423,7.500000,0.500000,7.500000
4424,8.000000,0.500000,7.500000
4425,8.500000,0.500000,7.500000
4426,9.000000,0.500000,7.500000
4427,9.500000,0.500000,7.500000
4428,10.000000,0.500000,7.500000
4429,-10.000000,0.750000,7.500000
4430,-9.500000,0.750000,7.500000
4431,-9.000000,0.750000,7.500000
4432,-8.500000,0.750000,7.500000
4433,-8.000000,0.750000,7.500000
4434,-7.500000,0.750000,7.500000
4435,-7.000000,0.750000,7.500000
4436,-6.500000,0.750000,7.500000
4437,-6.000000,0.750000,7.500000
4438,-5.500000,0.750000,7.500000
4439,-5.000000,0.750000,7.500000
4440,-4.500000,0.750000,7.500000
4441,-4.000000,0.750000,7.500000
4442,-3.500000,0.750000,7.500000
4443,-3.000000,0.750000,7.500000
4444,-2.500000,0.750000,7.500000
4445,-2.000000,0.750000,7.500000
4446,-1.500000,0.750000,7.500000
4447,-1.000000,0.750000,7.500000
4448,-0.500000,0.750000,7.500000
4449,0.000000,0.750000,7.500000
4450,0.500000,0.750000,7.500000
4451,1.000000,0.750000,7.500000
4452,1.500000,0.750000,7.500000
4453,2.000000,0.750000,7.500000
4454,2.500000,0.750000,7.500000
4455,3.000000,0.750000,7.500000
4456,3.500000,0.750000,7.500000
4457,4.000000,0.750000,7.500000
4458,4.500000,0.750000,7.500000
4459,5.000000,0.750000,7.500000
4460,5.500000,0.750000,7.500000
4461,6.000000,0.750000,7.500000
4462,6.500000,0.750000,7.500000
4463,7.000000,0.750000,7.500000
4464,7.500000,0.750000,7.500000
4465,8.000000,0.750000,7.500000
4466,8.500000,0.750000,7.500000
4467,9.000000,0.750000,7.500000
4468,9.500000,0.750000,7.500000
4469,10.000000,0.750000,7.500000
4470,-10.000000,1.000000,7.500000
4471,-9.500000,1.000000,7.500000
4472,-9.000000,1.000000,7.500000
4473,-8.500000,1.000000,7.500000
4474,-8.000000,1.000000,7.500000
4475,-7.500000,1.000000,7.500000
4476,-7.000000,1.000000,7.500000
4477,-6.500000,1.000000,7.500000
4478,-6.000000,1.000000,7.500000
4479,-5.500000,1.000000,7.500000
4480,-5.000000,1.000000,7.500000
4481,-4.500000,1.000000,7.500000
4482,-4.000000,1.000000,7.500000
4483,-3.500000,1.000000,7.500000
4484,-3.000000,1.000000,7.500000
4485,-2.500000,1.000000,7.500000
4486,-2.000000,1.000000,7.500000
4487,-1.500000,1.000000,7.500000
4488,-1.000000,1.000000,7.500000
4489,-0.500000,1.000000,7.500000
4490,0.000000,1.000000,7.500000
4491,0.500000,1.000000,7.500000
4492,1.000000,1.000000,7.500000
4493,1.500000,1.000000,7.500000
4494,2.000000,1.000000,7.500000
4495,2.500000,1.000000,7.500000
4496,3.000000,1.000000,7.500000
4497,3.500000,1.000000,7.500000
4498,4.000000,1.000000,7.500000
4499,4.500000,1.000000,7.500000
4500,5.000000,1.000000,7.500000
4501,5.500000,1.000000,7.500000
4502,6.000000,1.000000,7.500000
4503,6.500000,1.000000,7.500000
4504,7.000000,1.000000,7.500000
4505,7.500000,1.000000,7.500000
4506,8.000000,1.000000,7.500000
4507,8.500000,1.000000,7.500000
4508,9.000000,1.000000,7.500000
4509,9.500000,1.000000,7.500000
4510,10.000000,1.000000,7.500000
4511,-10.000000,1.250000,7.500000
4512,-9.500000,1.250000,7.500000
4513,-9.000000,1.250000,7.500000
4514,-8.500000,1.250000,7.500000
4515,-8.000000,1.250000,7.500000
4516,-7.500000,1.250000,7.500000
4517,-7.000000,1.250000,7.500000
4518,-6.500000,1.250000,7.500000
4519,-6.000000,1.250000,7.500000
4520,-5.500000,1.250000,7.500000
4521,-5.000000,1.250000,7.500000
4522,-4.500000,1.250000,7.500000
4523,-4.000000,1.250000,7.500000
4524,-3.500000,1.250000,7.500000
4525,-3.000000,1.250000,7.500000
4526,-2.500000,1.250000,7.500000
4527,-2.000000,1.250000,7.500000
4528,-1.500000,1.250000,7.500000
4529,-1.000000,1.250000,7.500000
4530,-0.500000,1.250000,7.500000
4531,0.000000,1.250000,7.500000
4532,0.500000,1.250000,7.500000
4533,1.000000,1.250000,7.500000
4534,1.500000,1.250000,7.500000
4535,2.000000,1.250000,7.500000
4536,2.500000,1.250000,7.500000
4537,3.000000,1.250000,7.500000
4538,3.500000,1.250000,7.500000
4539,4.000000,1.250000,7.500000
4540,4.500000,1.250000,7.500000
4541,5.000000,1.250000,7.500000
4542,5.500000,1.250000,7.500000
4543,6.000000,1.250000,7.500000
4544,6.500000,1.250000,7.500000
4545,7.000000,1.250000,7.500000
4546,7.500000,1.250000,7.500000
4547,8.000000,1.250000,7.500000
4548,8.500000,1.250000,7.500000
4549,9.000000,1.250000,7.500000
4550,9.500000,1.250000,7.500000
4551,10.000000,1.250000,7.500000
4552,-10.000000,1.500000,7.500000
4553,-9.500000,1.500000,7.500000
4554,-9.000000,1.500000,7.500000
4555,-8.500000,1.500000,7.500000
4556,-8.000000,1.500000,7.500000
4557,-7.500000,1.500000,7.500000
4558,-7.000000,1.500000,7.500000
4559,-6.500000,1.500000,7.500000
4560,-6.000000,1.500000,7.500000
4561,-5.500000,1.500000,7.500000
4562,-5.000000,1.500000,7.500000
4563,-4.500000,1.500000,7.500000
4564,-4.000000,1.500000,7.500000
4565,-3.500000,1.500000,7.500000
4566,-3.000000,1.500000,7.500000
4567,-2.500000,1.500000,7.500000
4568,-2.000000,1.500000,7.500000
4569,-1.500000,1.500000,7.500000
4570,-1.000000,1.500000,7.500000
4571,-0.500000,1.500000,7.500000
4572,0.000000,1.500000,7.500000
4573,0.500000,1.500000,7.500000
4574,1.000000,1.500000,7.500000
4575,1.500000,1.500000,7.500000
4576,2.000000,1.500000,7.500000
4577,2.500000,1.500000,7.500000
4578,3.000000,1.500000,7.500000
4579,3.500000,1.500000,7.500000
4580,4.000000,1.500000,7.500000
4581,4.500000,1.500000,7.500000
4582,5.000000,1.500000,7.500000
4583,5.500000,1.500000,7.500000
4584,6.000000,1.500000,7.500000
4585,6.500000,1.500000,7.500000
4586,7.000000,1.500000,7.500000
4587,7.500000,1.500000,7.500000
4588,8.000000,1.500000,7.500000
4589,8.500000,1.500000,7.500000
4590,9.000000,1.500000,7.500000
4591,9.500000,1.500000,7.500000
4592,10.000000,1.500000,7.500000
4593,-10.000000,0.000000,8.000000
4594,-9.500000,0.000000,8.000000
4595,-9.000000,0.000000,8.000000
4596,-8.500000,0.000000,8.000000
4597,-8.000000,0.000000,8.000000
4598,-7.500000,0.000000,8.000000
4599,-7.000000,0.000000,8.000000
4600,-6.500000,0.000000,8.000000
4601,-6.000000,0.000000,8.000000
4602,-5.500000,0.000000,8.000000
4603,-5.000000,0.000000,8.000000
4604,-4.500000,0.000000,8.000000
4605,-4.000000,0.000000,8.000000
4606,-3.500000,0.000000,8.000000
4607,-3.000000,0.000000,8.000000
4608,-2.500000,0.000000,8.000000
4609,-2.000000,0.000000,8.000000
4610,-1.500000,0.000000,8.000000
4611,-1.000000,0.000000,8.000000
4612,-0.500000,0.000000,8.000000
4613,0.000000,0.000000,8.000000
4614,0.500000,0.000000,8.000000
4615,1.000000,0.000000,8.000000
4616,1.500000,0.000000,8.000000
4617,2.000000,0.000000,8.000000
4618,2.500000,0.000000,8.000000
4619,3.000000,0.000000,8.000000
4620,3.500000,0.000000,8.000000
4621,4.000000,0.000000,8.000000
4622,4.500000,0.000000,8.000000
4623,5.000000,0.000000,8.000000
4624,5.500000,0.000000,8.000000
4625,6.000000,0.000000,8.000000
4626,6.500000,0.000000,8.000000
4627,7.000000,0.000000,8.000000
4628,7.500000,0.000000,8.000000
4629,8.000000,0.000000,8.000000
4630,8.500000,0.000000,8.000000
4631,9.000000,0.000000,8.000000
4632,9.500000,0.000000,8.000000
4633,10.000000,0.000000,8.000000
4634,-10.000000,0.250000,8.000000
4635,-9.500000,0.250000,8.000000
4636,-9.000000,0.250000,8.000000
4637,-8.500000,0.250000,8.000000
4638,-8.000000,0.250000,8.000000
4639,-7.500000,0.250000,8.000000
4640,-7.000000,0.250000,8.000000
4641,-6.500000,0.250000,8.000000
4642,-6.000000,0.250000,8.000000
4643,-5.500000,0.250000,8.000000
4644,-5.000000,0.250000,8.000000
4645,-4.500000,0.250000,8.000000
4646,-4.000000,0.250000,8.000000
4647,-3.500000,0.250000,8.000000
4648,-3.000000,0.250000,8.000000
4649,-2.500000,0.250000,8.000000
4650,-2.000000,0.250000,8.000000
4651,-1.500000,0.250000,8.000000
4652,-1.000000,0.250000,8.000000
4653,-0.500000,0.250000,8.000000
4654,0.000000,0.250000,8.000000
4655,0.500000,0.250000,8.000000
4656,1.000000,0.250000,8.000000
4657,1.500000,0.250000,8.000000
4658,2.000000,0.250000,8.000000
4659,2.500000,0.250000,8.000000
4660,3.000000,0.250000,8.000000
4661,3.500000,0.250000,8.000000
4662,4.000000,0.250000,8.000000
4663,4.500000,0.250000,8.000000
4664,5.000000,0.250000,8.000000
4665,5.500000,0.250000,8.000000
4666,6.000000,0.250000,8.000000
4667,6.500000,0.250000,8.000000
4668,7.000000,0.250000,8.000000
4669,7.500000,0.250000,8.000000
4670,8.000000,0.250000,8.000000
4671,8.500000,0.250000,8.000000
4672,9.000000,0.250000,8.000000
4673,9.500000,0.250000,8.000000
4674,10.000000,0.250000,8.000000
4675,-10.000000,0.500000,8.000000
4676,-9.500000,0.500000,8.000000
4677,-9.000000,0.500000,8.000000
4678,-8.500000,0.500000,8.000000
4679,-8.000000,0.500000,8.000000
4680,-7.500000,0.500000,8.000000
4681,-7.000000,0.500000,8.000000
4682,-6.500000,0.500000,8.000000
4683,-6.000000,0.500000,8.000000
4684,-5.500000,0.500000,8.000000
4685,-5.000000,0.500000,8.000000
4686,-4.500000,0.500000,8.000000
4687,-4.000000,0.500000,8.000000
4688,-3.500000,0.500000,8.000000
4689,-3.000000,0.500000,8.000000
4690,-2.500000,0.500000,8.000000
4691,-2.000000,0.500000,8.000000
4692,-1.500000,0.500000,8.000000
4693,-1.000000,0.500000,8.000000
4694,-0.500000,0.500000,8.000000
4695,0.000000,0.500000,8.000000
4696,0.500000,0.500000,8.000000
4697,1.000000,0.500000,8.000000
4698,1.500000,0.500000,8.000000
4699,2.000000,0.500000,8.000000
4700,2.500000,0.500000,8.000000
4701,3.000000,0.500000,8.000000
4702,3.500000,0.500000,8.000000
4703,4.000000,0.500000,8.000000
4704,4.500000,0.500000,8.000000
4705,5.000000,0.500000,8.000000
4706,5.500000,0.500000,8.000000
4707,6.000000,0.500000,8.000000
4708,6.500000,0.500000,8.000000
4709,7.000000,0.500000,8.000000
4710,7.500000,0.500000,8.000000
4711,8.000000,0.500000,8.000000
4712,8.500000,0.500000,8.000000
4713,9.000000,0.500000,8.000000
4714,9.500000,0.500000,8.000000
4715,10.000000,0.500000,8.000000
4716,-10.000000,0.750000,8.000000
4717,-9.500000,0.750000,8.000000
4718,-9.000000,0.750000,8.000000
4719,-8.500000,0.750000,8.000000
4720,-8.000000,0.750000,8.000000
4721,-7.500000,0.750000,8.000000
4722,-7.000000,0.750000,8.000000
4723,-6.500000,0.750000,8.000000
4724,-6.000000,0.750000,8.000000
4725,-5.500000,0.750000,8.000000
4726,-5.000000,0.750000,8.000000
4727,-4.500000,0.750000,8.000000
4728,-4.000000,0.750000,8.000000
4729,-3.500000,0.750000,8.000000
4730,-3.000000,0.750000,8.000000
4731,-2.500000,0.750000,8.000000
4732,-2.000000,0.750000,8.000000
4733,-1.500000,0.750000,8.000000
4734,-1.000000,0.750000,8.000000
4735,-0.500000,0.750000,8.000000
4736,0.000000,0.750000,8.000000
4737,0.500000,0.750000,8.000000
4738,1.000000,0.750000,8.000000
4739,1.500000,0.750000,8.000000
4740,2.000000,0.750000,8.000000
4741,2.500000,0.750000,8.000000
4742,3.000000,0.750000,8.000000
4743,3.500000,0.750000,8.000000
4744,4.000000,0.750000,8.000000
4745,4.500000,0.750000,8.000000
4746,5.000000,0.750000,8.000000
4747,5.500000,0.750000,8.000000
4748,6.000000,0.750000,8.000000
4749,6.500000,0.750000,8.000000
4750,7.000000,0.750000,8.000000
4751,7.500000,0.750000,8.000000
4752,8.000000,0.750000,8.000000
4753,8.500000,0.750000,8.000000
4754,9.000000,0.750000,8.000000
4755,9.500000,0.750000,8.000000
4756,10.000000,0.750000,8.000000
4757,-10.000000,1.000000,8.000000
4758,-9.500000,1.000000,8.000000
4759,-9.000000,1.000000,8.000000
4760,-8.500000,1.000000,8.000000
4761,-8.000000,1.000000,8.000000
4762,-7.500000,1.000000,8.000000
4763,-7.000000,1.000000,8.000000
4764,-6.500000,1.000000,8.000000
4765,-6.000000,1.000000,8.000000
4766,-5.500000,1.000000,8.000000
4767,-5.000000,1.000000,8.000000
4768,-4.500000,1.000000,8.000000
4769,-4.000000,1.000000,8.000000
4770,-3.500000,1.000000,8.000000
4771,-3.000000,1.000000,8.000000
4772,-2.500000,1.000000,8.000000
4773,-2.000000,1.000000,8.000000
4774,-1.500000,1.000000,8.000000
4775,-1.000000,1.000000,8.000000
4776,-0.500000,1.000000,8.000000
4777,0.000000,1.000000,8.000000
4778,0.500000,1.000000,8.000000
4779,1.000000,1.000000,8.000000
4780,1.500000,1.000000,8.000000
4781,2.000000,1.000000,8.000000
4782,2.500000,1.000000,8.000000
4783,3.000000,1.000000,8.000000
4784,3.500000,1.000000,8.000000
4785,4.000000,1.000000,8.000000
4786,4.500000,1.000000,8.000000
4787,5.000000,1.000000,8.000000
4788,5.500000,1.000000,8.000000
4789,6.000000,1.000000,8.000000
4790,6.500000,1.000000,8.000000
4791,7.000000,1.000000,8.000000
4792,7.500000,1.000000,8.000000
4793,8.000000,1.000000,8.000000
4794,8.500000,1.000000,8.000000
4795,9.000000,1.000000,8.000000
4796,9.500000,1.000000,8.000000
4797,10.000000,1.000000,8.000000
4798,-10.000000,1.250000,8.000000
4799,-9.500000,1.250000,8.000000
4800,-9.000000,1.250000,8.000000
4801,-8.500000,1.250000,8.000000
4802,-8.000000,1.250000,8.000000
4803,-7.500000,1.250000,8.000000
4804,-7.000000,1.250000,8.000000
4805,-6.500000,1.250000,8.000000
4806,-6.000000,1.250000,8.000000
4807,-5.500000,1.250000,8.000000
4808,-5.000000,1.250000,8.000000
4809,-4.500000,1.250000,8.000000
4810,-4.000000,1.250000,8.000000
4811,-3.500000,1.250000,8.000000
4812,-3.000000,1.250000,8.000000
4813,-2.500000,1.250000,8.000000
4814,-2.000000,1.250000,8.000000
4815,-1.500000,1.250000,8.000000
4816,-1.000000,1.250000,8.000000
4817,-0.500000,1.250000,8.000000
4818,0.000000,1.250000,8.000000
4819,0.500000,1.250000,8.000000
4820,1.000000,1.250000,8.000000
4821,1.500000,1.250000,8.000000
4822,2.000000,1.250000,8.000000
4823,2.500000,1.250000,8.000000
4824,3.000000,1.250000,8.000000
4825,3.500000,1.250000,8.000000
4826,4.000000,1.250000,8.000000
4827,4.500000,1.250000,8.000000
4828,5.000000,1.250000,8.000000
4829,5.500000,1.250000,8.000000
4830,6.000000,1.250000,8.000000
4831,6.500000,1.250000,8.000000
4832,7.000000,1.250000,8.000000
4833,7.500000,1.250000,8.000000
4834,8.000000,1.250000,8.000000
4835,8.500000,1.250000,8.000000
4836,9.000000,1.250000,8.000000
4837,9.500000,1.250000,8.000000
4838,10.000000,1.250000,8.000000
4839,-10.000000,1.500000,8.000000
4840,-9.500000,1.500000,8.000000
4841,-9.000000,1.500000,8.000000
4842,-8.500000,1.500000,8.000000
4843,-8.000000,1.500000,8.000000
4844,-7.500000,1.500000,8.000000
4845,-7.000000,1.500000,8.000000
4846,-6.500000,1.500000,8.000000
4847,-6.000000,1.500000,8.000000
4848,-5.500000,1.500000,8.000000
4849,-5.000000,1.500000,8.000000
4850,-4.500000,1.500000,8.000000
4851,-4.000000,1.500000,8.000000
4852,-3.500000,1.500000,8.000000
4853,-3.000000,1.500000,8.000000
4854,-2.500000,1.500000,8.000000
4855,-2.000000,1.500000,8.000000
4856,-1.500000,1.500000,8.000000
4857,-1.000000,1.500000,8.000000
4858,-0.500000,1.500000,8.000000
4859,0.000000,1.500000,8.000000
4860,0.500000,1.500000,8.000000
4861,1.000000,1.500000,8.000000
4862,1.500000,1.500000,8.000000
4863,2.000000,1.500000,8.000000
4864,2.500000,1.500000,8.000000
4865,3.000000,1.500000,8.000000
4866,3.500000,1.500000,8.000000
4867,4.000000,1.500000,8.000000
4868,4.500000,1.500000,8.000000
4869,5.000000,1.500000,8.000000
4870,5.500000,1.500000,8.000000
4871,6.000000,1.500000,8.000000
4872,6.500000,1.500000,8.000000
4873,7.000000,1.500000,8.000000
4874,7.500000,1.500000,8.000000
4875,8.000000,1.500000,8.000000
4876,8.500000,1.500000,8.000000
4877,9.000000,1.500000,8.000000
4878,9.500000,1.500000,8.000000
4879,10.000000,1.500000,8.000000
4880,-10.000000,0.000000,8.500000
4881,-9.500000,0.000000,8.500000
4882,-9.000000,0.000000,8.500000
4883,-8.500000,0.000000,8.500000
4884,-8.000000,0.000000,8.500000
4885,-7.500000,0.000000,8.500000
4886,-7.000000,0.000000,8.500000
4887,-6.500000,0.000000,8.500000
4888,-6.000000,0.000000,8.500000
4889,-5.500000,0.000000,8.500000
4890,-5.000000,0.000000,8.500000
4891,-4.500000,0.000000,8.500000
4892,-4.000000,0.000000,8.500000
4893,-3.500000,0.000000,8.500000
4894,-3.000000,0.000000,8.500000
4895,-2.500000,0.000000,8.500000
4896,-2.000000,0.000000,8.500000
4897,-1.500000,0.000000,8.500000
4898,-1.000000,0.000000,8.500000
4899,-0.500000,0.000000,8.500000
4900,0.000000,0.000000,8.500000
4901,0.500000,0.000000,8.500000
4902,1.000000,0.000000,8.500000
4903,1.500000,0.000000,8.500000
4904,2.000000,0.000000,8.500000
4905,2.500000,0.000000,8.500000
4906,3.000000,0.000000,8.500000
4907,3.500000,0.000000,8.500000
4908,4.000000,0.000000,8.500000
4909,4.500000,0.000000,8.500000
4910,5.000000,0.000000,8.500000
4911,5.500000,0.000000,8.500000
4912,6.000000,0.000000,8.500000
4913,6.500000,0.000000,8.500000
4914,7.000000,0.000000,8.500000
4915,7.500000,0.000000,8.500000
4916,8.000000,0.000000,8.500000
4917,8.500000,0.000000,8.500000
4918,9.000000,0.000000,8.500000
4919,9.500000,0.000000,8.500000
4920,10.000000,0.000000,8.500000
4921,-10.000000,0.250000,8.500000
4922,-9.500000,0.250000,8.500000
4923,-9.000000,0.250000,8.500000
4924,-8.500000,0.250000,8.500000
4925,-8.000000,0.250000,8.500000
4926,-7.500000,0.250000,8.500000
4927,-7.000000,0.250000,8.500000
4928,-6.500000,0.250000,8.500000
4929,-6.000000,0.250000,8.500000
4930,-5.500000,0.250000,8.500000
4931,-5.000000,0.250000,8.500000
4932,-4.500000,0.250000,8.500000
4933,-4.000000,0.250000,8.500000
4934,-3.500000,0.250000,8.500000
4935,-3.000000,0.250000,8.500000
4936,-2.500000,0.250000,8.500000
4937,-2.000000,0.250000,8.500000
4938,-1.500000,0.250000,8.500000
4939,-1.000000,0.250000,8.500000
4940,-0.500000,0.250000,8.500000
4941,0.000000,0.250000,8.500000
4942,0.500000,0.250000,8.500000
4943,1.000000,0.250000,8.500000
4944,1.500000,0.250000,8.500000
4945,2.000000,0.250000,8.500000
4946,2.500000,0.250000,8.500000
4947,3.000000,0.250000,8.500000
4948,3.500000,0.250000,8.500000
4949,4.000000,0.250000,8.500000
4950,4.500000,0.250000,8.500000
4951,5.000000,0.250000,8.500000
4952,5.500000,0.250000,8.500000
4953,6.000000,0.250000,8.500000
4954,6.500000,0.250000,8.500000
4955,7.000000,0.250000,8.500000
4956,7.500000,0.250000,8.500000
4957,8.000000,0.250000,8.500000
4958,8.500000,0.250000,8.500000
4959,9.000000,0.250000,8.500000
4960,9.500000,0.250000,8.500000
4961,10.000000,0.250000,8.500000
4962,-10.000000,0.500000,8.500000
4963,-9.500000,0.500000,8.500000
4964,-9.000000,0.500000,8.500000
4965,-8.500000,0.500000,8.500000
4966,-8.000000,0.500000,8.500000
4967,-7.500000,0.500000,8.500000
4968,-7.000000,0.500000,8.500000
4969,-6.500000,0.500000,8.500000
4970,-6.000000,0.500000,8.500000
4971,-5.500000,0.500000,8.500000
4972,-5.000000,0.500000,8.500000
4973,-4.500000,0.500000,8.500000
4974,-4.000000,0.500000,8.500000
4975,-3.500000,0.500000,8.500000
4976,-3.000000,0.500000,8.500000
4977,-2.500000,0.500000,8.500000
4978,-2.000000,0.500000,8.500000
4979,-1.500000,0.500000,8.500000
4980,-1.000000,0.500000,8.500000
4981,-0.500000,0.500000,8.500000
4982,0.000000,0.500000,8.500000
4983,0.500000,0.500000,8.500000
4984,1.000000,0.500000,8.500000
4985,1.500000,0.500000,8.500000
4986,2.000000,0.500000,8.500000
4987,2.500000,0.500000,8.500000
4988,3.000000,0.500000,8.500000
4989,3.500000,0.500000,8.500000
4990,4.000000,0.500000,8.500000
4991,4.500000,0.500000,8.500000
4992,5.000000,0.500000,8.500000
4993,5.500000,0.500000,8.500000
4994,6.000000,0.500000,8.500000
4995,6.500000,0.500000,8.500000
4996,7.000000,0.500000,8.500000
4997,7.500000,0.500000,8.500000
4998,8.000000,0.500000,8.500000
4999,8.500000,0.500000,8.500000
5000,9.000000,0.500000,8.500000
5001,9.500000,0.500000,8.500000
5002,10.000000,0.500000,8.500000
5003,-10.000000,0.750000,8.500000
5004,-9.500000,0.750000,8.500000
5005,-9.000000,0.750000,8.500000
5006,-8.500000,0.750000,8.500000
5007,-8.000000,0.750000,8.500000
5008,-7.500000,0.750000,8.500000
5009,-7.000000,0.750000,8.500000
5010,-6.500000,0.750000,8.500000
5011,-6.000000,0.750000,8.500000
5012,-5.500000,0.750000,8.500000
5013,-5.000000,0.750000,8.500000
5014,-4.500000,0.750000,8.500000
5015,-4.000000,0.750000,8.500000
5016,-3.500000,0.750000,8.500000
5017,-3.000000,0.750000,8.500000
5018,-2.500000,0.750000,8.500000
5019,-2.000000,0.750000,8.500000
5020,-1.500000,0.750000,8.500000
5021,-1.000000,0.750000,8.500000
5022,-0.500000,0.750000,8.500000
5023,0.000000,0.750000,8.500000
5024,0.500000,0.750000,8.500000
5025,1.000000,0.750000,8.500000
5026,1.500000,0.750000,8.500000
5027,2.000000,0.750000,8.500000
5028,2.500000,0.750000,8.500000
5029,3.000000,0.750000,8.500000
5030,3.500000,0.750000,8.500000
5031,4.000000,0.750000,8.500000
5032,4.500000,0.750000,8.500000
5033,5.000000,0.750000,8.500000
5034,5.500000,0.750000,8.500000
5035,6.000000,0.750000,8.500000
5036,6.500000,0.750000,8.500000
5037,7.000000,0.750000,8.500000
5038,7.500000,0.750000,8.500000
5039,8.000000,0.750000,8.500000
5040,8.500000,0.750000,8.500000
5041,9.000000,0.750000,8.500000
5042,9.500000,0.750000,8.500000
5043,10.000000,0.750000,8.500000
5044,-10.000000,1.000000,8.500000
5045,-9.500000,1.000000,8.500000
5046,-9.000000,1.000000,8.500000
5047,-8.500000,1.000000,8.500000
5048,-8.000000,1.000000,8.500000
5049,-7.500000,1.000000,8.500000
5050,-7.000000,1.000000,8.500000
5051,-6.500000,1.000000,8.500000
5052,-6.000000,1.000000,8.500000
5053,-5.500000,1.000000,8.500000
5054,-5.000000,1.000000,8.500000
5055,-4.500000,1.000000,8.500000
5056,-4.000000,1.000000,8.500000
5057,-3.500000,1.000000,8.500000
5058,-3.000000,1.000000,8.500000
5059,-2.500000,1.000000,8.500000
5060,-2.000000,1.000000,8.500000
5061,-1.500000,1.000000,8.500000
5062,-1.000000,1.000000,8.500000
5063,-0.500000,1.000000,8.500000
5064,0.000000,1.000000,8.500000
5065,0.500000,1.000000,8.500000
5066,1.000000,1.000000,8.500000
5067,1.500000,1.000000,8.500000
5068,2.000000,1.000000,8.500000
5069,2.500000,1.000000,8.500000
5070,3.000000,1.000000,8.500000
5071,3.500000,1.000000,8.500000
5072,4.000000,1.000000,8.500000
5073,4.500000,1.000000,8.500000
5074,5.000000,1.000000,8.500000
5075,5.500000,1.000000,8.500000
5076,6.000000,1.000000,8.500000
5077,6.500000,1.000000,8.500000
5078,7.000000,1.000000,8.500000
5079,7.500000,1.000000,8.500000
5080,8.000000,1.000000,8.500000
5081,8.500000,1.000000,8.500000
5082,9.000000,1.000000,8.500000
5083,9.500000,1.000000,8.500000
5084,10.000000,1.000000,8.500000
5085,-10.000000,1.250000,8.500000
5086,-9.500000,1.250000,8.500000
5087,-9.000000,1.250000,8.500000
5088,-8.500000,1.250000,8.500000
5089,-8.000000,1.250000,8.500000
5090,-7.500000,1.250000,8.500000
5091,-7.000000,1.250000,8.500000
5092,-6.500000,1.250000,8.500000
5093,-6.000000,1.250000,8.500000
5094,-5.500000,1.250000,8.500000
5095,-5.000000,1.250000,8.500000
5096,-4.500000,1.250000,8.500000
5097,-4.000000,1.250000,8.500000
5098,-3.500000,1.250000,8.500000
5099,-3.000000,1.250000,8.500000
5100,-2.500000,1.250000,8.500000
5101,-2.000000,1.250000,8.500000
5102,-1.500000,1.250000,8.500000
5103,-1.000000,1.250000,8.500000
5104,-0.500000,1.250000,8.500000
5105,0.000000,1.250000,8.500000
5106,0.500000,1.250000,8.500000
5107,1.000000,1.250000,8.500000
5108,1.500000,1.250000,8.500000
5109,2.000000,1.250000,8.500000
5110,2.500000,1.250000,8.500000
5111,3.000000,1.250000,8.500000
5112,3.500000,1.250000,8.500000
5113,4.000000,1.250000,8.500000
5114,4.500000,1.250000,8.500000
5115,5.000000,1.250000,8.500000
5116,5.500000,1.250000,8.500000
5117,6.000000,1.250000,8.500000
5118,6.500000,1.250000,8.500000
5119,7.000000,1.250000,8.500000
5120,7.500000,1.250000,8.500000
5121,8.000000,1.250000,8.500000
5122,8.500000,1.250000,8.500000
5123,9.000000,1.250000,8.500000
5124,9.500000,1.250000,8.500000
5125,10.000000,1.250000,8.500000
5126,-10.000000,1.500000,8.500000
5127,-9.500000,1.500000,8.500000
5128,-9.000000,1.500000,8.500000
5129,-8.500000,1.500000,8.500000
5130,-8.000000,1.500000,8.500000
5131,-7.500000,1.500000,8.500000
5132,-7.000000,1.500000,8.500000
5133,-6.500000,1.500000,8.500000
5134,-6.000000,1.500000,8.500000
5135,-5.500000,1.500000,8.500000
5136,-5.000000,1.500000,8.500000
5137,-4.500000,1.500000,8.500000
5138,-4.000000,1.500000,8.500000
5139,-3.500000,1.500000,8.500000
5140,-3.000000,1.500000,8.500000
5141,-2.500000,1.500000,8.500000
5142,-2.000000,1.500000,8.500000
5143,-1.500000,1.500000,8.500000
5144,-1.000000,1.500000,8.500000
5145,-0.500000,1.500000,8.500000
5146,0.000000,1.500000,8.500000
5147,0.500000,1.500000,8.500000
5148,1.000000,1.500000,8.500000
5149,1.500000,1.500000,8.500000
5150,2.000000,1.500000,8.500000
5151,2.500000,1.500000,8.500000
5152,3.000000,1.500000,8.500000
5153,3.500000,1.500000,8.500000
5154,4.000000,1.500000,8.500000
5155,4.500000,1.500000,8.500000
5156,5.000000,1.500000,8.500000
5157,5.500000,1.500000,8.500000
5158,6.000000,1.500000,8.500000
5159,6.500000,1.500000,8.500000
5160,7.000000,1.500000,8.500000
5161,7.500000,1.500000,8.500000
5162,8.000000,1.500000,8.500000
5163,8.500000,1.500000,8.500000
5164,9.000000,1.500000,8.500000
5165,9.500000,1.500000,8.500000
5166,10.000000,1.500000,8.500000
5167,-10.000000,0.000000,9.000000
5168,-9.500000,0.000000,9.000000
5169,-9.000000,0.000000,9.000000
5170,-8.500000,0.000000,9.000000
5171,-8.000000,0.000000,9.000000
5172,-7.500000,0.000000,9.000000
5173,-7.000000,0.000000,9.000000
5174,-6.500000,0.000000,9.000000
5175,-6.000000,0.000000,9.000000
5176,-5.500000,0.000000,9.000000
5177,-5.000000,0.000000,9.000000
5178,-4.500000,0.000000,9.000000
5179,-4.000000,0.000000,9.000000
5180,-3.500000,0.000000,9.000000
5181,-3.000000,0.000000,9.000000
5182,-2.500000,0.000000,9.000000
5183,-2.000000,0.000000,9.000000
5184,-1.500000,0.000000,9.000000
5185,-1.000000,0.000000,9.000000
5186,-0.500000,0.000000,9.000000
5187,0.000000,0.000000,9.000000
5188,0.500000,0.000000,9.000000
5189,1.000000,0.000000,9.000000
5190,1.500000,0.000000,9.000000
5191,2.000000,0.000000,9.000000
5192,2.500000,0.000000,9.000000
5193,3.000000,0.000000,9.000000
5194,3.500000,0.000000,9.000000
5195,4.000000,0.000000,9.000000
5196,4.500000,0.000000,9.000000
5197,5.000000,0.000000,9.000000
5198,5.500000,0.000000,9.000000
5199,6.000000,0.000000,9.000000
5200,6.500000,0.000000,9.000000
5201,7.000000,0.000000,9.000000
5202,7.500000,0.000000,9.000000
5203,8.000000,0.000000,9.000000
5204,8.500000,0.000000,9.000000
5205,9.000000,0.000000,9.000000
5206,9.500000,0.000000,9.000000
5207,10.000000,0.000000,9.000000
5208,-10.000000,0.250000,9.000000
5209,-9.500000,0.250000,9.000000
5210,-9.000000,0.250000,9.000000
5211,-8.500000,0.250000,9.000000
5212,-8.000000,0.250000,9.000000
5213,-7.500000,0.250000,9.000000
5214,-7.000000,0.250000,9.000000
5215,-6.500000,0.250000,9.000000
5216,-6.000000,0.250000,9.000000
5217,-5.500000,0.250000,9.000000
5218,-5.000000,0.250000,9.000000
5219,-4.500000,0.250000,9.000000
5220,-4.000000,0.250000,9.000000
5221,-3.500000,0.250000,9.000000
5222,-3.000000,0.250000,9.000000
5223,-2.500000,0.250000,9.000000
5224,-2.000000,0.250000,9.000000
5225,-1.500000,0.250000,9.000000
5226,-1.000000,0.250000,9.000000
5227,-0.500000,0.250000,9.000000
5228,0.000000,0.250000,9.000000
5229,0.500000,0.250000,9.000000
5230,1.000000,0.250000,9.000000
5231,1.500000,0.250000,9.000000
5232,2.000000,0.250000,9.000000
5233,2.500000,0.250000,9.000000
5234,3.000000,0.250000,9.000000
5235,3.500000,0.250000,9.000000
5236,4.000000,0.250000,9.000000
5237,4.500000,0.250000,9.000000
5238,5.000000,0.250000,9.000000
5239,5.500000,0.250000,9.000000
5240,6.000000,0.250000,9.000000
5241,6.500000,0.250000,9.000000
5242,7.000000,0.250000,9.000000
5243,7.500000,0.250000,9.000000
5244,8.000000,0.250000,9.000000
5245,8.500000,0.250000,9.000000
5246,9.000000,0.250000,9.000000
5247,9.500000,0.250000,9.000000
5248,10.000000,0.250000,9.000000
5249,-10.000000,0.500000,9.000000
5250,-9.500000,0.500000,9.000000
5251,-9.000000,0.500000,9.000000
5252,-8.500000,0.500000,9.000000
5253,-8.000000,0.500000,9.000000
5254,-7.500000,0.500000,9.000000
5255,-7.000000,0.500000,9.000000
5256,-6.500000,0.500000,9.000000
5257,-6.000000,0.500000,9.000000
5258,-5.500000,0.500000,9.000000
5259,-5.000000,0.500000,9.000000
5260,-4.500000,0.500000,9.000000
5261,-4.000000,0.500000,9.000000
5262,-3.500000,0.500000,9.000000
5263,-3.000000,0.500000,9.000000
5264,-2.500000,0.500000,9.000000
5265,-2.000000,0.500000,9.000000
5266,-1.500000,0.500000,9.000000
5267,-1.000000,0.500000,9.000000
5268,-0.500000,0.500000,9.000000
5269,0.000000,0.500000,9.000000
5270,0.500000,0.500000,9.000000
5271,1.000000,0.500000,9.000000
5272,1.500000,0.500000,9.000000
5273,2.000000,0.500000,9.000000
5274,2.500000,0.500000,9.000000
5275,3.000000,0.500000,9.000000
5276,3.500000,0.500000,9.000000
5277,4.000000,0.500000,9.000000
5278,4.500000,0.500000,9.000000
5279,5.000000,0.500000,9.000000
5280,5.500000,0.500000,9.000000
5281,6.000000,0.500000,9.000000
5282,6.500000,0.500000,9.000000
5283,7.000000,0.500000,9.000000
5284,7.500000,0.500000,9.000000
5285,8.000000,0.500000,9.000000
5286,8.500000,0.500000,9.000000
5287,9.000000,0.500000,9.000000
5288,9.500000,0.500000,9.000000
5289,10.000000,0.500000,9.000000
5290,-10.000000,0.750000,9.000000
5291,-9.500000,0.750000,9.000000
5292,-9.000000,0.750000,9.000000
5293,-8.500000,0.750000,9.000000
5294,-8.000000,0.750000,9.000000
5295,-7.500000,0.750000,9.000000
5296,-7.000000,0.750000,9.000000
5297,-6.500000,0.750000,9.000000
5298,-6.000000,0.750000,9.000000
5299,-5.500000,0.750000,9.000000
5300,-5.000000,0.750000,9.000000
5301,-4.500000,0.750000,9.000000
5302,-4.000000,0.750000,9.000000
5303,-3.500000,0.750000,9.000000
5304,-3.000000,0.750000,9.000000
5305,-2.500000,0.750000,9.000000
5306,-2.000000,0.750000,9.000000
5307,-1.500000,0.750000,9.000000
5308,-1.000000,0.750000,9.000000
5309,-0.500000,0.750000,9.000000
5310,0.000000,0.750000,9.000000
5311,0.500000,0.750000,9.000000
5312,1.000000,0.750000,9.000000
5313,1.500000,0.750000,9.000000
5314,2.000000,0.750000,9.000000
5315,2.500000,0.750000,9.000000
5316,3.000000,0.750000,9.000000
5317,3.500000,0.750000,9.000000
5318,4.000000,0.750000,9.000000
5319,4.500000,0.750000,9.000000
5320,5.000000,0.750000,9.000000
5321,5.500000,0.750000,9.000000
5322,6.000000,0.750000,9.000000
5323,6.500000,0.750000,9.000000
5324,7.000000,0.750000,9.000000
5325,7.500000,0.750000,9.000000
5326,8.000000,0.750000,9.000000
5327,8.500000,0.750000,9.000000
5328,9.000000,0.750000,9.000000
5329,9.500000,0.750000,9.000000
5330,10.000000,0.750000,9.000000
5331,-10.000000,1.000000,9.000000
5332,-9.500000,1.000000,9.000000
5333,-9.000000,1.000000,9.000000
5334,-8.500000,1.000000,9.000000
5335,-8.000000,1.000000,9.000000
5336,-7.500000,1.000000,9.000000
5337,-7.000000,1.000000,9.000000
5338,-6.500000,1.000000,9.000000
5339,-6.000000,1.000000,9.000000
5340,-5.500000,1.000000,9.000000
5341,-5.000000,1.000000,9.000000
5342,-4.500000,1.000000,9.000000
5343,-4.000000,1.000000,9.000000
5344,-3.500000,1.000000,9.000000
5345,-3.000000,1.000000,9.000000
5346,-2.500000,1.000000,9.000000
5347,-2.000000,1.000000,9.000000
5348,-1.500000,1.000000,9.000000
5349,-1.000000,1.000000,9.000000
5350,-0.500000,1.000000,9.000000
5351,0.000000,1.000000,9.000000
5352,0.500000,1.000000,9.000000
5353,1.000000,1.000000,9.000000
5354,1.500000,1.000000,9.000000
5355,2.000000,1.000000,9.000000
5356,2.500000,1.000000,9.000000
5357,3.000000,1.000000,9.000000
5358,3.500000,1.000000,9.000000
5359,4.000000,1.000000,9.000000
5360,4.500000,1.000000,9.000000
5361,5.000000,1.000000,9.000000
5362,5.500000,1.000000,9.000000
5363,6.000000,1.000000,9.000000
5364,6.500000,1.000000,9.000000
5365,7.000000,1.000000,9.000000
5366,7.500000,1.000000,9.000000
5367,8.000000,1.000000,9.000000
5368,8.500000,1.000000,9.000000
5369,9.000000,1.000000,9.000000
5370,9.500000,1.000000,9.000000
5371,10.000000,1.000000,9.000000
5372,-10.000000,1.250000,9.000000
5373,-9.500000,1.250000,9.000000
5374,-9.000000,1.250000,9.000000
5375,-8.500000,1.250000,9.000000
5376,-8.000000,1.250000,9.000000
5377,-7.500000,1.250000,9.000000
5378,-7.000000,1.250000,9.000000
5379,-6.500000,1.250000,9.000000
5380,-6.000000,1.250000,9.000000
5381,-5.500000,1.250000,9.000000
5382,-5.000000,1.250000,9.000000
5383,-4.500000,1.250000,9.000000
5384,-4.000000,1.250000,9.000000
5385,-3.500000,1.250000,9.000000
5386,-3.000000,1.250000,9.000000
5387,-2.500000,1.250000,9.000000
5388,-2.000000,1.250000,9.000000
5389,-1.500000,1.250000,9.000000
5390,-1.000000,1.250000,9.000000
5391,-0.500000,1.250000,9.000000
5392,0.000000,1.250000,9.000000
5393,0.500000,1.250000,9.000000
5394,1.000000,1.250000,9.000000
5395,1.500000,1.250000,9.000000
5396,2.000000,1.250000,9.000000
5397,2.500000,1.250000,9.000000
5398,3.000000,1.250000,9.000000
5399,3.500000,1.250000,9.000000
5400,4.000000,1.250000,9.000000
5401,4.500000,1.250000,9.000000
5402,5.000000,1.250000,9.000000
5403,5.500000,1.250000,9.000000
5404,6.000000,1.250000,9.000000
5405,6.500000,1.250000,9.000000
5406,7.000000,1.250000,9.000000
5407,7.500000,1.250000,9.000000
5408,8.000000,1.250000,9.000000
5409,8.500000,1.250000,9.000000
5410,9.000000,1.250000,9.000000
5411,9.500000,1.250000,9.000000
5412,10.000000,1.250000,9.000000
5413,-10.000000,1.500000,9.000000
5414,-9.500000,1.500000,9.000000
5415,-9.000000,1.500000,9.000000
5416,-8.500000,1.500000,9.000000
5417,-8.000000,1.500000,9.000000
5418,-7.500000,1.500000,9.000000
5419,-7.000000,1.500000,9.000000
5420,-6.500000,1.500000,9.000000
5421,-6.000000,1.500000,9.000000
5422,-5.500000,1.500000,9.000000
5423,-5.000000,1.500000,9.000000
5424,-4.500000,1.500000,9.000000
5425,-4.000000,1.500000,9.000000
5426,-3.500000,1.500000,9.000000
5427,-3.000000,1.500000,9.000000
5428,-2.500000,1.500000,9.000000
5429,-2.000000,1.500000,9.000000
5430,-1.500000,1.500000,9.000000
5431,-1.000000,1.500000,9.000000
5432,-0.500000,1.500000,9.000000
5433,0.000000,1.500000,9.000000
5434,0.500000,1.500000,9.000000
5435,1.000000,1.500000,9.000000
5436,1.500000,1.500000,9.000000
5437,2.000000,1.500000,9.000000
5438,2.500000,1.500000,9.000000
5439,3.000000,1.500000,9.000000
5440,3.500000,1.500000,9.000000
5441,4.000000,1.500000,9.000000
5442,4.500000,1.500000,9.000000
5443,5.000000,1.500000,9.000000
5444,5.500000,1.500000,9.000000
5445,6.000000,1.500000,9.000000
5446,6.500000,1.500000,9.000000
5447,7.000000,1.500000,9.000000
5448,7.500000,1.500000,9.000000
5449,8.000000,1.500000,9.000000
5450,8.500000,1.500000,9.000000
5451,9.000000,1.500000,9.000000
5452,9.500000,1.500000,9.000000
5453,10.000000,1.500000,9.000000
5454,-10.000000,0.000000,9.500000
5455,-9.500000,0.000000,9.500000
5456,-9.000000,0.000000,9.500000
5457,-8.500000,0.000000,9.500000
5458,-8.000000,0.000000,9.500000
5459,-7.500000,0.000000,9.500000
5460,-7.000000,0.000000,9.500000
5461,-6.500000,0.000000,9.500000
5462,-6.000000,0.000000,9.500000
5463,-5.500000,0.000000,9.500000
5464,-5.000000,0.000000,9.500000
5465,-4.500000,0.000000,9.500000
5466,-4.000000,0.000000,9.500000
5467,-3.500000,0.000000,9.500000
5468,-3.000000,0.000000,9.500000
5469,-2.500000,0.000000,9.500000
5470,-2.000000,0.000000,9.500000
5471,-1.500000,0.000000,9.500000
5472,-1.000000,0.000000,9.500000
5473,-0.500000,0.000000,9.500000
5474,0.000000,0.000000,9.500000
5475,0.500000,0.000000,9.500000
5476,1.000000,0.000000,9.500000
5477,1.500000,0.000000,9.500000
5478,2.000000,0.000000,9.500000
5479,2.500000,0.000000,9.500000
5480,3.000000,0.000000,9.500000
5481,3.500000,0.000000,9.500000
5482,4.000000,0.000000,9.500000
5483,4.500000,0.000000,9.500000
5484,5.000000,0.000000,9.500000
5485,5.500000,0.000000,9.500000
5486,6.000000,0.000000,9.500000
5487,6.500000,0.000000,9.500000
5488,7.000000,0.000000,9.500000
5489,7.500000,0.000000,9.500000
5490,8.000000,0.000000,9.500000
5491,8.500000,0.000000,9.500000
5492,9.000000,0.000000,9.500000
5493,9.500000,0.000000,9.500000
5494,10.000000,0.000000,9.500000
5495,-10.000000,0.250000,9.500000
5496,-9.500000,0.250000,9.500000
5497,-9.000000,0.250000,9.500000
5498,-8.500000,0.250000,9.500000
5499,-8.000000,0.250000,9.500000
5500,-7.500000,0.250000,9.500000
5501,-7.000000,0.250000,9.500000
5502,-6.500000,0.250000,9.500000
5503,-6.000000,0.250000,9.500000
5504,-5.500000,0.250000,9.500000
5505,-5.000000,0.250000,9.500000
5506,-4.500000,0.250000,9.500000
5507,-4.000000,0.250000,9.500000
5508,-3.500000,0.250000,9.500000
5509,-3.000000,0.250000,9.500000
5510,-2.500000,0.250000,9.500000
5511,-2.000000,0.250000,9.500000
5512,-1.500000,0.250000,9.500000
5513,-1.000000,0.250000,9.500000
5514,-0.500000,0.250000,9.500000
5515,0.000000,0.250000,9.500000
5516,0.500000,0.250000,9.500000
5517,1.000000,0.250000,9.500000
5518,1.500000,0.250000,9.500000
5519,2.000000,0.250000,9.500000
5520,2.500000,0.250000,9.500000
5521,3.000000,0.250000,9.500000
5522,3.500000,0.250000,9.500000
5523,4.000000,0.250000,9.500000
5524,4.500000,0.250000,9.500000
5525,5.000000,0.250000,9.500000
5526,5.500000,0.250000,9.500000
5527,6.000000,0.250000,9.500000
5528,6.500000,0.250000,9.500000
5529,7.000000,0.250000,9.500000
5530,7.500000,0.250000,9.500000
5531,8.000000,0.250000,9.500000
5532,8.500000,0.250000,9.500000
5533,9.000000,0.250000,9.500000
5534,9.500000,0.250000,9.500000
5535,10.000000,0.250000,9.500000
5536,-10.000000,0.500000,9.500000
5537,-9.500000,0.500000,9.500000
5538,-9.000000,0.500000,9.500000
5539,-8.500000,0.500000,9.500000
5540,-8.000000,0.500000,9.500000
5541,-7.500000,0.500000,9.500000
5542,-7.000000,0.500000,9.500000
5543,-6.500000,0.500000,9.500000
5544,-6.000000,0.500000,9.500000
5545,-5.500000,0.500000,9.500000
5546,-5.000000,0.500000,9.500000
5547,-4.500000,0.500000,9.500000
5548,-4.000000,0.500000,9.500000
5549,-3.500000,0.500000,9.500000
5550,-3.000000,0.500000,9.500000
5551,-2.500000,0.500000,9.500000
5552,-2.000000,0.500000,9.500000
5553,-1.500000,0.500000,9.500000
5554,-1.000000,0.500000,9.500000
5555,-0.500000,0.500000,9.500000
5556,0.000000,0.500000,9.500000
5557,0.500000,0.500000,9.500000
5558,1.000000,0.500000,9.500000
5559,1.500000,0.500000,9.500000
5560,2.000000,0.500000,9.500000
5561,2.500000,0.500000,9.500000
5562,3.000000,0.500000,9.500000
5563,3.500000,0.500000,9.500000
5564,4.000000,0.500000,9.500000
5565,4.500000,0.500000,9.500000
5566,5.000000,0.500000,9.500000
5567,5.500000,0.500000,9.500000
5568,6.000000,0.500000,9.500000
5569,6.500000,0.500000,9.500000
5570,7.000000,0.500000,9.500000
5571,7.500000,0.500000,9.500000
5572,8.000000,0.500000,9.500000
5573,8.500000,0.500000,9.500000
5574,9.000000,0.500000,9.500000
5575,9.500000,0.500000,9.500000
5576,10.000000,0.500000,9.500000
5577,-10.000000,0.750000,9.500000
5578,-9.500000,0.750000,9.500000
5579,-9.000000,0.750000,9.500000
5580,-8.500000,0.750000,9.500000
5581,-8.000000,0.750000,9.500000
5582,-7.500000,0.750000,9.500000
5583,-7.000000,0.750000,9.500000
5584,-6.500000,0.750000,9.500000
5585,-6.000000,0.750000,9.500000
5586,-5.500000,0.750000,9.500000
5587,-5.000000,0.750000,9.500000
5588,-4.500000,0.750000,9.500000
5589,-4.000000,0.750000,9.500000
5590,-3.500000,0.750000,9.500000
5591,-3.000000,0.750000,9.500000
5592,-2.500000,0.750000,9.500000
5593,-2.000000,0.750000,9.500000
5594,-1.500000,0.750000,9.500000
5595,-1.000000,0.750000,9.500000
5596,-0.500000,0.750000,9.500000
5597,0.000000,0.750000,9.500000
5598,0.500000,0.750000,9.500000
5599,1.000000,0.750000,9.500000
5600,1.500000,0.750000,9.500000
5601,2.000000,0.750000,9.500000
5602,2.500000,0.750000,9.500000
5603,3.000000,0.750000,9.500000
5604,3.500000,0.750000,9.500000
5605,4.000000,0.750000,9.500000
5606,4.500000,0.750000,9.500000
5607,5.000000,0.750000,9.500000
5608,5.500000,0.750000,9.500000
5609,6.000000,0.750000,9.500000
5610,6.500000,0.750000,9.500000
5611,7.000000,0.750000,9.500000
5612,7.500000,0.750000,9.500000
5613,8.000000,0.750000,9.500000
5614,8.500000,0.750000,9.500000
5615,9.000000,0.750000,9.500000
5616,9.500000,0.750000,9.500000
5617,10.000000,0.750000,9.500000
5618,-10.000000,1.000000,9.500000
5619,-9.500000,1.000000,9.500000
5620,-9.000000,1.000000,9.500000
5621,-8.500000,1.000000,9.500000
5622,-8.000000,1.000000,9.500000
5623,-7.500000,1.000000,9.500000
5624,-7.000000,1.000000,9.500000
5625,-6.500000,1.000000,9.500000
5626,-6.000000,1.000000,9.500000
5627,-5.500000,1.000000,9.500000
5628,-5.000000,1.000000,9.500000
5629,-4.500000,1.000000,9.500000
5630,-4.000000,1.000000,9.500000
5631,-3.500000,1.000000,9.500000
5632,-3.000000,1.000000,9.500000
5633,-2.500000,1.000000,9.500000
5634,-2.000000,1.000000,9.500000
5635,-1.500000,1.000000,9.500000
5636,-1.000000,1.000000,9.500000
5637,-0.500000,1.000000,9.500000
5638,0.000000,1.000000,9.500000
5639,0.500000,1.000000,9.500000
5640,1.000000,1.000000,9.500000
5641,1.500000,1.000000,9.500000
5642,2.000000,1.000000,9.500000
5643,2.500000,1.000000,9.500000
5644,3.000000,1.000000,9.500000
5645,3.500000,1.000000,9.500000
5646,4.000000,1.000000,9.500000
5647,4.500000,1.000000,9.500000
5648,5.000000,1.000000,9.500000
5649,5.500000,1.000000,9.500000
5650,6.000000,1.000000,9.500000
5651,6.500000,1.000000,9.500000
5652,7.000000,1.000000,9.500000
5653,7.500000,1.000000,9.500000
5654,8.000000,1.000000,9.500000
5655,8.500000,1.000000,9.500000
5656,9.000000,1.000000,9.500000
5657,9.500000,1.000000,9.500000
5658,10.000000,1.000000,9.500000
5659,-10.000000,1.250000,9.500000
5660,-9.500000,1.250000,9.500000
5661,-9.000000,1.250000,9.500000
5662,-8.500000,1.250000,9.500000
5663,-8.000000,1.250000,9.500000
5664,-7.500000,1.250000,9.500000
5665,-7.000000,1.250000,9.500000
5666,-6.500000,1.250000,9.500000
5667,-6.000000,1.250000,9.500000
5668,-5.500000,1.250000,9.500000
5669,-5.000000,1.250000,9.500000
5670,-4.500000,1.250000,9.500000
5671,-4.000000,1.250000,9.500000
5672,-3.500000,1.250000,9.500000
5673,-3.000000,1.250000,9.500000
5674,-2.500000,1.250000,9.500000
5675,-2.000000,1.250000,9.500000
5676,-1.500000,1.250000,9.500000
5677,-1.000000,1.250000,9.500000
5678,-0.500000,1.250000,9.500000
5679,0.000000,1.250000,9.500000
5680,0.500000,1.250000,9.500000
5681,1.000000,1.250000,9.500000
5682,1.500000,1.250000,9.500000
5683,2.000000,1.250000,9.500000
5684,2.500000,1.250000,9.500000
5685,3.000000,1.250000,9.500000
5686,3.500000,1.250000,9.500000
5687,4.000000,1.250000,9.500000
5688,4.500000,1.250000,9.500000
5689,5.000000,1.250000,9.500000
5690,5.500000,1.250000,9.500000
5691,6.000000,1.250000,9.500000
5692,6.500000,1.250000,9.500000
5693,7.000000,1.250000,9.500000
5694,7.500000,1.250000,9.500000
5695,8.000000,1.250000,9.500000
5696,8.500000,1.250000,9.500000
5697,9.000000,1.250000,9.500000
5698,9.500000,1.250000,9.500000
5699,10.000000,1.250000,9.500000
5700,-10.000000,1.500000,9.500000
5701,-9.500000,1.500000,9.500000
5702,-9.000000,1.500000,9.500000
5703,-8.500000,1.500000,9.500000
5704,-8.000000,1.500000,9.500000
5705,-7.500000,1.500000,9.500000
5706,-7.000000,1.500000,9.500000
5707,-6.500000,1.500000,9.500000
5708,-6.000000,1.500000,9.500000
5709,-5.500000,1.500000,9.500000
5710,-5.000000,1.500000,9.500000
5711,-4.500000,1.500000,9.500000
5712,-4.000000,1.500000,9.500000
5713,-3.500000,1.500000,9.500000
5714,-3.000000,1.500000,9.500000
5715,-2.500000,1.500000,9.500000
5716,-2.000000,1.500000,9.500000
5717,-1.500000,1.500000,9.500000
5718,-1.000000,1.500000,9.500000
5719,-0.500000,1.500000,9.500000
5720,0.000000,1.500000,9.500000
5721,0.500000,1.500000,9.500000
5722,1.000000,1.500000,9.500000
5723,1.500000,1.500000,9.500000
5724,2.000000,1.500000,9.500000
5725,2.500000,1.500000,9.500000
5726,3.000000,1.500000,9.500000
5727,3.500000,1.500000,9.500000
5728,4.000000,1.500000,9.500000
5729,4.500000,1.500000,9.500000
5730,5.000000,1.500000,9.500000
5731,5.500000,1.500000,9.500000
5732,6.000000,1.500000,9.500000
5733,6.500000,1.500000,9.500000
5734,7.000000,1.500000,9.500000
5735,7.500000,1.500000,9.500000
5736,8.000000,1.500000,9.500000
5737,8.500000,1.500000,9.500000
5738,9.000000,1.500000,9.500000
5739,9.500000,1.500000,9.500000
5740,10.000000,1.500000,9.500000
5741,-10.000000,0.000000,10.000000
5742,-9.500000,0.000000,10.000000
5743,-9.000000,0.000000,10.000000
5744,-8.500000,0.000000,10.000000
5745,-8.000000,0.000000,10.000000
5746,-7.500000,0.000000,10.000000
5747,-7.000000,0.000000,10.000000
5748,-6.500000,0.000000,10.000000
5749,-6.000000,0.000000,10.000000
5750,-5.500000,0.000000,10.000000
5751,-5.000000,0.000000,10.000000
5752,-4.500000,0.000000,10.000000
5753,-4.000000,0.000000,10.000000
5754,-3.500000,0.000000,10.000000
5755,-3.000000,0.000000,10.000000
5756,-2.500000,0.000000,10.000000
5757,-2.000000,0.000000,10.000000
5758,-1.500000,0.000000,10.000000
5759,-1.000000,0.000000,10.000000
5760,-0.500000,0.000000,10.000000
5761,0.000000,0.000000,10.000000
5762,0.500000,0.000000,10.000000
5763,1.000000,0.000000,10.000000
5764,1.500000,0.000000,10.000000
5765,2.000000,0.000000,10.000000
5766,2.500000,0.000000,10.000000
5767,3.000000,0.000000,10.000000
5768,3.500000,0.000000,10.000000
5769,4.000000,0.000000,10.000000
5770,4.500000,0.000000,10.000000
5771,5.000000,0.000000,10.000000
5772,5.500000,0.000000,10.000000
5773,6.000000,0.000000,10.000000
5774,6.500000,0.000000,10.000000
5775,7.000000,0.000000,10.000000
5776,7.500000,0.000000,10.000000
5777,8.000000,0.000000,10.000000
5778,8.500000,0.000000,10.000000
5779,9.000000,0.000000,10.000000
5780,9.500000,0.000000,10.000000
5781,10.000000,0.000000,10.000000
5782,-10.000000,0.250000,10.000000
5783,-9.500000,0.250000,10.000000
5784,-9.000000,0.250000,10.000000
5785,-8.500000,0.250000,10.000000
5786,-8.000000,0.250000,10.000000
5787,-7.500000,0.250000,10.000000
5788,-7.000000,0.250000,10.000000
5789,-6.500000,0.250000,10.000000
5790,-6.000000,0.250000,10.000000
5791,-5.500000,0.250000,10.000000
5792,-5.000000,0.250000,10.000000
5793,-4.500000,0.250000,10.000000
5794,-4.000000,0.250000,10.000000
5795,-3.500000,0.250000,10.000000
5796,-3.000000,0.250000,10.000000
5797,-2.500000,0.250000,10.000000
5798,-2.000000,0.250000,10.000000
5799,-1.500000,0.250000,10.000000
5800,-1.000000,0.250000,10.000000
5801,-0.500000,0.250000,10.000000
5802,0.000000,0.250000,10.000000
5803,0.500000,0.250000,10.000000
5804,1.000000,0.250000,10.000000
5805,1.500000,0.250000,10.000000
5806,2.000000,0.250000,10.000000
5807,2.500000,0.250000,10.000000
5808,3.000000,0.250000,10.000000
5809,3.500000,0.250000,10.000000
5810,4.000000,0.250000,10.000000
5811,4.500000,0.250000,10.000000
5812,5.000000,0.250000,10.000000
5813,5.500000,0.250000,10.000000
5814,6.000000,0.250000,10.000000
5815,6.500000,0.250000,10.000000
5816,7.000000,0.250000,10.000000
5817,7.500000,0.250000,10.000000
5818,8.000000,0.250000,10.000000
5819,8.500000,0.250000,10.000000
5820,9.000000,0.250000,10.000000
5821,9.500000,0.250000,10.000000
5822,10.000000,0.250000,10.000000
5823,-10.000000,0.500000,10.000000
5824,-9.500000,0.500000,10.000000
5825,-9.000000,0.500000,10.000000
5826,-8.500000,0.500000,10.000000
5827,-8.000000,0.500000,10.000000
5828,-7.500000,0.500000,10.000000
5829,-7.000000,0.500000,10.000000
5830,-6.500000,0.500000,10.000000
5831,-6.000000,0.500000,10.000000
5832,-5.500000,0.500000,10.000000
5833,-5.000000,0.500000,10.000000
5834,-4.500000,0.500000,10.000000
5835,-4.000000,0.500000,10.000000
5836,-3.500000,0.500000,10.000000
5837,-3.000000,0.500000,10.000000
5838,-2.500000,0.500000,10.000000
5839,-2.000000,0.500000,10.000000
5840,-1.500000,0.500000,10.000000
5841,-1.000000,0.500000,10.000000
5842,-0.500000,0.500000,10.000000
5843,0.000000,0.500000,10.000000
5844,0.500000,0.500000,10.000000
5845,1.000000,0.500000,10.000000
5846,1.500000,0.500000,10.000000
5847,2.000000,0.500000,10.000000
5848,2.500000,0.500000,10.000000
5849,3.000000,0.500000,10.000000
5850,3.500000,0.500000,10.000000
5851,4.000000,0.500000,10.000000
5852,4.500000,0.500000,10.000000
5853,5.000000,0.500000,10.000000
5854,5.500000,0.500000,10.000000
5855,6.000000,0.500000,10.000000
5856,6.500000,0.500000,10.000000
5857,7.000000,0.500000,10.000000
5858,7.500000,0.500000,10.000000
5859,8.000000,0.500000,10.000000
5860,8.500000,0.500000,10.000000
5861,9.000000,0.500000,10.000000
5862,9.500000,0.500000,10.000000
5863,10.000000,0.500000,10.000000
5864,-10.000000,0.750000,10.000000
5865,-9.500000,0.750000,10.000000
5866,-9.000000,0.750000,10.000000
5867,-8.500000,0.750000,10.000000
5868,-8.000000,0.750000,10.000000
5869,-7.500000,0.750000,10.000000
5870,-7.000000,0.750000,10.000000
5871,-6.500000,0.750000,10.000000
5872,-6.000000,0.750000,10.000000
5873,-5.500000,0.750000,10.000000
5874,-5.000000,0.750000,10.000000
5875,-4.500000,0.750000,10.000000
5876,-4.000000,0.750000,10.000000
5877,-3.500000,0.750000,10.000000
5878,-3.000000,0.750000,10.000000
5879,-2.500000,0.750000,10.000000
5880,-2.000000,0.750000,10.000000
5881,-1.500000,0.750000,10.000000
5882,-1.000000,0.750000,10.000000
5883,-0.500000,0.750000,10.000000
5884,0.000000,0.750000,10.000000
5885,0.500000,0.750000,10.000000
5886,1.000000,0.750000,10.000000
5887,1.500000,0.750000,10.000000
5888,2.000000,0.750000,10.000000
5889,2.500000,0.750000,10.000000
5890,3.000000,0.750000,10.000000
5891,3.500000,0.750000,10.000000
5892,4.000000,0.750000,10.000000
5893,4.500000,0.750000,10.000000
5894,5.000000,0.750000,10.000000
5895,5.500000,0.750000,10.000000
5896,6.000000,0.750000,10.000000
5897,6.500000,0.750000,10.000000
5898,7.000000,0.750000,10.000000
5899,7.500000,0.750000,10.000000
5900,8.000000,0.750000,10.000000
5901,8.500000,0.750000,10.000000
5902,9.000000,0.750000,10.000000
5903,9.500000,0.750000,10.000000
5904,10.000000,0.750000,10.000000
5905,-10.000000,1.000000,10.000000
5906,-9.500000,1.000000,10.000000
5907,-9.000000,1.000000,10.000000
5908,-8.500000,1.000000,10.000000
5909,-8.000000,1.000000,10.000000
5910,-7.500000,1.000000,10.000000
5911,-7.000000,1.000000,10.000000
5912,-6.500000,1.000000,10.000000
5913,-6.000000,1.000000,10.000000
5914,-5.500000,1.000000,10.000000
5915,-5.000000,1.000000,10.000000
5916,-4.500000,1.000000,10.000000
5917,-4.000000,1.000000,10.000000
5918,-3.500000,1.000000,10.000000
5919,-3.000000,1.000000,10.000000
5920,-2.500000,1.000000,10.000000
5921,-2.000000,1.000000,10.000000
5922,-1.500000,1.000000,10.000000
5923,-1.000000,1.000000,10.000000
5924,-0.500000,1.000000,10.000000
5925,0.000000,1.000000,10.000000
5926,0.500000,1.000000,10.000000
5927,1.000000,1.000000,10.000000
5928,1.500000,1.000000,10.000000
5929,2.000000,1.000000,10.000000
5930,2.500000,1.000000,10.000000
5931,3.000000,1.000000,10.000000
5932,3.500000,1.000000,10.000000
5933,4.000000,1.000000,10.000000
5934,4.500000,1.000000,10.000000
5935,5.000000,1.000000,10.000000
5936,5.500000,1.000000,10.000000
5937,6.000000,1.000000,10.000000
5938,6.500000,1.000000,10.000000
5939,7.000000,1.000000,10.000000
5940,7.500000,1.000000,10.000000
5941,8.000000,1.000000,10.000000
5942,8.500000,1.000000,10.000000
5943,9.000000,1.000000,10.000000
5944,9.500000,1.000000,10.000000
5945,10.000000,1.000000,10.000000
5946,-10.000000,1.250000,10.000000
5947,-9.500000,1.250000,10.000000
5948,-9.000000,1.250000,10.000000
5949,-8.500000,1.250000,10.000000
5950,-8.000000,1.250000,10.000000
5951,-7.500000,1.250000,10.000000
5952,-7.000000,1.250000,10.000000
5953,-6.500000,1.250000,10.000000
5954,-6.000000,1.250000,10.000000
5955,-5.500000,1.250000,10.000000
5956,-5.000000,1.250000,10.000000
5957,-4.500000,1.250000,10.000000
5958,-4.000000,1.250000,10.000000
5959,-3.500000,1.250000,10.000000
5960,-3.000000,1.250000,10.000000
5961,-2.500000,1.250000,10.000000
5962,-2.000000,1.250000,10.000000
5963,-1.500000,1.250000,10.000000
5964,-1.000000,1.250000,10.000000
5965,-0.500000,1.250000,10.000000
5966,0.000000,1.250000,10.000000
5967,0.500000,1.250000,10.000000
5968,1.000000,1.250000,10.000000
5969,1.500000,1.250000,10.000000
5970,2.000000,1.250000,10.000000
5971,2.500000,1.250000,10.000000
5972,3.000000,1.250000,10.000000
5973,3.500000,1.250000,10.000000
5974,4.000000,1.250000,10.000000
5975,4.500000,1.250000,10.000000
5976,5.000000,1.250000,10.000000
5977,5.500000,1.250000,10.000000
5978,6.000000,1.250000,10.000000
5979,6.500000,1.250000,10.000000
5980,7.000000,1.250000,10.000000
5981,7.500000,1.250000,10.000000
5982,8.000000,1.250000,10.000000
5983,8.500000,1.250000,10.000000
5984,9.000000,1.250000,10.000000
5985,9.500000,1.250000,10.000000
5986,10.000000,1.250000,10.000000
5987,-10.000000,1.500000,10.000000
5988,-9.500000,1.500000,10.000000
5989,-9.000000,1.500000,10.000000
5990,-8.500000,1.500000,10.000000
5991,-8.000000,1.500000,10.000000
5992,-7.500000,1.500000,10.000000
5993,-7.000000,1.500000,10.000000
5994,-6.500000,1.500000,10.000000
5995,-6.000000,1.500000,10.000000
5996,-5.500000,1.500000,10.000000
5997,-5.000000,1.500000,10.000000
5998,-4.500000,1.500000,10.000000
5999,-4.000000,1.500000,10.000000
6000,-3.500000,1.500000,10.000000
6001,-3.000000,1.500000,10.000000
6002,-2.500000,1.500000,10.000000
6003,-2.000000,1.500000,10.000000
6004,-1.500000,1.500000,10.000000
6005,-1.000000,1.500000,10.000000
6006,-0.500000,1.500000,10.000000
6007,0.000000,1.500000,10.000000
6008,0.500000,1.500000,10.000000
6009,1.000000,1.500000,10.000000
6010,1.500000,1.500000,10.000000
6011,2.000000,1.500000,10.000000
6012,2.500000,1.500000,10.000000
6013,3.000000,1.500000,10.000000
6014,3.500000,1.500000,10.000000
6015,4.000000,1.500000,10.000000
6016,4.500000,1.500000,10.000000
6017,5.000000,1.500000,10.000000
6018,5.500000,1.500000,10.000000
6019,6.000000,1.500000,10.000000
6020,6.500000,1.500000,10.000000
6021,7.000000,1.500000,10.000000
6022,7.500000,1.500000,10.000000
6023,8.000000,1.500000,10.000000
6024,8.500000,1.500000,10.000000
6025,9.000000,1.500000,10.000000
6026,9.500000,1.500000,10.000000
6027,10.000000,1.500000,10.000000
6028,-10.000000,0.000000,10.500000
6029,-9.500000,0.000000,10.500000
6030,-9.000000,0.000000,10.500000
6031,-8.500000,0.000000,10.500000
6032,-8.000000,0.000000,10.500000
6033,-7.500000,0.000000,10.500000
6034,-7.000000,0.000000,10.500000
6035,-6.500000,0.000000,10.500000
6036,-6.000000,0.000000,10.500000
6037,-5.500000,0.000000,10.500000
6038,-5.000000,0.000000,10.500000
6039,-4.500000,0.000000,10.500000
6040,-4.000000,0.000000,10.500000
6041,-3.500000,0.000000,10.500000
6042,-3.000000,0.000000,10.500000
6043,-2.500000,0.000000,10.500000
6044,-2.000000,0.000000,10.500000
6045,-1.500000,0.000000,10.500000
6046,-1.000000,0.000000,10.500000
6047,-0.500000,0.000000,10.500000
6048,0.000000,0.000000,10.500000
6049,0.500000,0.000000,10.500000
6050,1.000000,0.000000,10.500000
6051,1.500000,0.000000,10.500000
6052,2.000000,0.000000,10.500000
6053,2.500000,0.000000,10.500000
6054,3.000000,0.000000,10.500000
6055,3.500000,0.000000,10.500000
6056,4.000000,0.000000,10.500000
6057,4.500000,0.000000,10.500000
6058,5.000000,0.000000,10.500000
6059,5.500000,0.000000,10.500000
6060,6.000000,0.000000,10.500000
6061,6.500000,0.000000,10.500000
6062,7.000000,0.000000,10.500000
6063,7.500000,0.000000,10.500000
6064,8.000000,0.000000,10.500000
6065,8.500000,0.000000,10.500000
6066,9.000000,0.000000,10.500000
6067,9.500000,0.000000,10.500000
6068,10.000000,0.000000,10.500000
6069,-10.000000,0.250000,10.500000
6070,-9.500000,0.250000,10.500000
6071,-9.000000,0.250000,10.500000
6072,-8.500000,0.250000,10.500000
6073,-8.000000,0.250000,10.500000
6074,-7.500000,0.250000,10.500000
6075,-7.000000,0.250000,10.500000
6076,-6.500000,0.250000,10.500000
6077,-6.000000,0.250000,10.500000
6078,-5.500000,0.250000,10.500000
6079,-5.000000,0.250000,10.500000
6080,-4.500000,0.250000,10.500000
6081,-4.000000,0.250000,10.500000
6082,-3.500000,0.250000,10.500000
6083,-3.000000,0.250000,10.500000
6084,-2.500000,0.250000,10.500000
6085,-2.000000,0.250000,10.500000
6086,-1.500000,0.250000,10.500000
6087,-1.000000,0.250000,10.500000
6088,-0.500000,0.250000,10.500000
6089,0.000000,0.250000,10.500000
6090,0.500000,0.250000,10.500000
6091,1.000000,0.250000,10.500000
6092,1.500000,0.250000,10.500000
6093,2.000000,0.250000,10.500000
6094,2.500000,0.250000,10.500000
6095,3.000000,0.250000,10.500000
6096,3.500000,0.250000,10.500000
6097,4.000000,0.250000,10.500000
6098,4.500000,0.250000,10.500000
6099,5.000000,0.250000,10.500000
6100,5.500000,0.250000,10.500000
6101,6.000000,0.250000,10.500000
6102,6.500000,0.250000,10.500000
6103,7.000000,0.250000,10.500000
6104,7.500000,0.250000,10.500000
6105,8.000000,0.250000,10.500000
6106,8.500000,0.250000,10.500000
6107,9.000000,0.250000,10.500000
6108,9.500000,0.250000,10.500000
6109,10.000000,0.250000,10.500000
6110,-10.000000,0.500000,10.500000
6111,-9.500000,0.500000,10.500000
6112,-9.000000,0.500000,10.500000
6113,-8.500000,0.500000,10.500000
6114,-8.000000,0.500000,10.500000
6115,-7.500000,0.500000,10.500000
6116,-7.000000,0.500000,10.500000
6117,-6.500000,0.500000,10.500000
6118,-6.000000,0.500000,10.500000
6119,-5.500000,0.500000,10.500000
6120,-5.000000,0.500000,10.500000
6121,-4.500000,0.500000,10.500000
6122,-4.000000,0.500000,10.500000
6123,-3.500000,0.500000,10.500000
6124,-3.000000,0.500000,10.500000
6125,-2.500000,0.500000,10.500000
6126,-2.000000,0.500000,10.500000
6127,-1.500000,0.500000,10.500000
6128,-1.000000,0.500000,10.500000
6129,-0.500000,0.500000,10.500000
6130,0.000000,0.500000,10.500000
6131,0.500000,0.500000,10.500000
6132,1.000000,0.500000,10.500000
6133,1.500000,0.500000,10.500000
6134,2.000000,0.500000,10.500000
6135,2.500000,0.500000,10.500000
6136,3.000000,0.500000,10.500000
6137,3.500000,0.500000,10.500000
6138,4.000000,0.500000,10.500000
6139,4.500000,0.500000,10.500000
6140,5.000000,0.500000,10.500000
6141,5.500000,0.500000,10.500000
6142,6.000000,0.500000,10.500000
6143,6.500000,0.500000,10.500000
6144,7.000000,0.500000,10.500000
6145,7.500000,0.500000,10.500000
6146,8.000000,0.500000,10.500000
6147,8.500000,0.500000,10.500000
6148,9.000000,0.500000,10.500000
6149,9.500000,0.500000,10.500000
6150,10.000000,0.500000,10.500000
6151,-10.000000,0.750000,10.500000
6152,-9.500000,0.750000,10.500000
6153,-9.000000,0.750000,10.500000
6154,-8.500000,0.750000,10.500000
6155,-8.000000,0.750000,10.500000
6156,-7.500000,0.750000,10.500000
6157,-7.000000,0.750000,10.500000
6158,-6.500000,0.750000,10.500000
6159,-6.000000,0.750000,10.500000
6160,-5.500000,0.750000,10.500000
6161,-5.000000,0.750000,10.500000
6162,-4.500000,0.750000,10.500000
6163,-4.000000,0.750000,10.500000
6164,-3.500000,0.750000,10.500000
6165,-3.000000,0.750000,10.500000
6166,-2.500000,0.750000,10.500000
6167,-2.000000,0.750000,10.500000
6168,-1.500000,0.750000,10.500000
6169,-1.000000,0.750000,10.500000
6170,-0.500000,0.750000,10.500000
6171,0.000000,0.750000,10.500000
6172,0.500000,0.750000,10.500000
6173,1.000000,0.750000,10.500000
6174,1.500000,0.750000,10.500000
6175,2.000000,0.750000,10.500000
6176,2.500000,0.750000,10.500000
6177,3.000000,0.750000,10.500000
6178,3.500000,0.750000,10.500000
6179,4.000000,0.750000,10.500000
6180,4.500000,0.750000,10.500000
6181,5.000000,0.750000,10.500000
6182,5.500000,0.750000,10.500000
6183,6.000000,0.750000,10.500000
6184,6.500000,0.750000,10.500000
6185,7.000000,0.750000,10.500000
6186,7.500000,0.750000,10.500000
6187,8.000000,0.750000,10.500000
6188,8.500000,0.750000,10.500000
6189,9.000000,0.750000,10.500000
6190,9.500000,0.750000,10.500000
6191,10.000000,0.750000,10.500000
6192,-10.000000,1.000000,10.500000
6193,-9.500000,1.000000,10.500000
6194,-9.000000,1.000000,10.500000
6195,-8.500000,1.000000,10.500000
6196,-8.000000,1.000000,10.500000
6197,-7.500000,1.000000,10.500000
6198,-7.000000,1.000000,10.500000
6199,-6.500000,1.000000,10.500000
6200,-6.000000,1.000000,10.500000
6201,-5.500000,1.000000,10.500000
6202,-5.000000,1.000000,10.500000
6203,-4.500000,1.000000,10.500000
6204,-4.000000,1.000000,10.500000
6205,-3.500000,1.000000,10.500000
6206,-3.000000,1.000000,10.500000
6207,-2.500000,1.000000,10.500000
6208,-2.000000,1.000000,10.500000
6209,-1.500000,1.000000,10.500000
6210,-1.000000,1.000000,10.500000
6211,-0.500000,1.000000,10.500000
6212,0.000000,1.000000,10.500000
6213,0.500000,1.000000,10.500000
6214,1.000000,1.000000,10.500000
6215,1.500000,1.000000,10.500000
6216,2.000000,1.000000,10.500000
6217,2.500000,1.000000,10.500000
6218,3.000000,1.000000,10.500000
6219,3.500000,1.000000,10.500000
6220,4.000000,1.000000,10.500000
6221,4.500000,1.000000,10.500000
6222,5.000000,1.000000,10.500000
6223,5.500000,1.000000,10.500000
6224,6.000000,1.000000,10.500000
6225,6.500000,1.000000,10.500000
6226,7.000000,1.000000,10.500000
6227,7.500000,1.000000,10.500000
6228,8.000000,1.000000,10.500000
6229,8.500000,1.000000,10.500000
6230,9.000000,1.000000,10.500000
6231,9.500000,1.000000,10.500000
6232,10.000000,1.000000,10.500000
6233,-10.000000,1.250000,10.500000
6234,-9.500000,1.250000,10.500000
6235,-9.000000,1.250000,10.500000
6236,-8.500000,1.250000,10.500000
6237,-8.000000,1.250000,10.500000
6238,-7.500000,1.250000,10.500000
6239,-7.000000,1.250000,10.500000
6240,-6.500000,1.250000,10.500000
6241,-6.000000,1.250000,10.500000
6242,-5.500000,1.250000,10.500000
6243,-5.000000,1.250000,10.500000
6244,-4.500000,1.250000,10.500000
6245,-4.000000,1.250000,10.500000
6246,-3.500000,1.250000,10.500000
6247,-3.000000,1.250000,10.500000
6248,-2.500000,1.250000,10.500000
6249,-2.000000,1.250000,10.500000
6250,-1.500000,1.250000,10.500000
6251,-1.000000,1.250000,10.500000
6252,-0.500000,1.250000,10.500000
6253,0.000000,1.250000,10.500000
6254,0.500000,1.250000,10.500000
6255,1.000000,1.250000,10.500000
6256,1.500000,1.250000,10.500000
6257,2.000000,1.250000,10.500000
6258,2.500000,1.250000,10.500000
6259,3.000000,1.250000,10.500000
6260,3.500000,1.250000,10.500000
6261,4.000000,1.250000,10.500000
6262,4.500000,1.250000,10.500000
6263,5.000000,1.250000,10.500000
6264,5.500000,1.250000,10.500000
6265,6.000000,1.250000,10.500000
6266,6.500000,1.250000,10.500000
6267,7.000000,1.250000,10.500000
6268,7.500000,1.250000,10.500000
6269,8.000000,1.250000,10.500000
6270,8.500000,1.250000,10.500000
6271,9.000000,1.250000,10.500000
6272,9.500000,1.250000,10.500000
6273,10.000000,1.250000,10.500000
6274,-10.000000,1.500000,10.500000
6275,-9.500000,1.500000,10.500000
6276,-9.000000,1.500000,10.500000
6277,-8.500000,1.500000,10.500000
6278,-8.000000,1.500000,10.500000
6279,-7.500000,1.500000,10.500000
6280,-7.000000,1.500000,10.500000
6281,-6.500000,1.500000,10.500000
6282,-6.000000,1.500000,10.500000
6283,-5.500000,1.500000,10.500000
6284,-5.000000,1.500000,10.500000
6285,-4.500000,1.500000,10.500000
6286,-4.000000,1.500000,10.500000
6287,-3.500000,1.500000,10.500000
6288,-3.000000,1.500000,10.500000
6289,-2.500000,1.500000,10.500000
6290,-2.000000,1.500000,10.500000
6291,-1.500000,1.500000,10.500000
6292,-1.000000,1.500000,10.500000
6293,-0.500000,1.500000,10.500000
6294,0.000000,1.500000,10.500000
6295,0.500000,1.500000,10.500000
6296,1.000000,1.500000,10.500000
6297,1.500000,1.500000,10.500000
6298,2.000000,1.500000,10.500000
6299,2.500000,1.500000,10.500000
6300,3.000000,1.500000,10.500000
6301,3.500000,1.500000,10.500000
6302,4.000000,1.500000,10.500000
6303,4.500000,1.500000,10.500000
6304,5.000000,1.500000,10.500000
6305,5.500000,1.500000,10.500000
6306,6.000000,1.500000,10.500000
6307,6.500000,1.500000,10.500000
6308,7.000000,1.500000,10.500000
6309,7.500000,1.500000,10.500000
6310,8.000000,1.500000,10.500000
6311,8.500000,1.500000,10.500000
6312,9.000000,1.500000,10.500000
6313,9.500000,1.500000,10.500000
6314,10.000000,1.500000,10.500000
6315,-10.000000,0.000000,11.000000
6316,-9.500000,0.000000,11.000000
6317,-9.000000,0.000000,11.000000
6318,-8.500000,0.000000,11.000000
6319,-8.000000,0.000000,11.000000
6320,-7.500000,0.000000,11.000000
6321,-7.000000,0.000000,11.000000
6322,-6.500000,0.000000,11.000000
6323,-6.000000,0.000000,11.000000
6324,-5.500000,0.000000,11.000000
6325,-5.000000,0.000000,11.000000
6326,-4.500000,0.000000,11.000000
6327,-4.000000,0.000000,11.000000
6328,-3.500000,0.000000,11.000000
6329,-3.000000,0.000000,11.000000
6330,-2.500000,0.000000,11.000000
6331,-2.000000,0.000000,11.000000
6332,-1.500000,0.000000,11.000000
6333,-1.000000,0.000000,11.000000
6334,-0.500000,0.000000,11.000000
6335,0.000000,0.000000,11.000000
6336,0.500000,0.000000,11.000000
6337,1.000000,0.000000,11.000000
6338,1.500000,0.000000,11.000000
6339,2.000000,0.000000,11.000000
6340,2.500000,0.000000,11.000000
6341,3.000000,0.000000,11.000000
6342,3.500000,0.000000,11.000000
6343,4.000000,0.000000,11.000000
6344,4.500000,0.000000,11.000000
6345,5.000000,0.000000,11.000000
6346,5.500000,0.000000,11.000000
6347,6.000000,0.000000,11.000000
6348,6.500000,0.000000,11.000000
6349,7.000000,0.000000,11.000000
6350,7.500000,0.000000,11.000000
6351,8.000000,0.000000,11.000000
6352,8.500000,0.000000,11.000000
6353,9.000000,0.000000,11.000000
6354,9.500000,0.000000,11.000000
6355,10.000000,0.000000,11.000000
6356,-10.000000,0.250000,11.000000
6357,-9.500000,0.250000,11.000000
6358,-9.000000,0.250000,11.000000
6359,-8.500000,0.250000,11.000000
6360,-8.000000,0.250000,11.000000
6361,-7.500000,0.250000,11.000000
6362,-7.000000,0.250000,11.000000
6363,-6.500000,0.250000,11.000000
6364,-6.000000,0.250000,11.000000
6365,-5.500000,0.250000,11.000000
6366,-5.000000,0.250000,11.000000
6367,-4.500000,0.250000,11.000000
6368,-4.000000,0.250000,11.000000
6369,-3.500000,0.250000,11.000000
6370,-3.000000,0.250000,11.000000
6371,-2.500000,0.250000,11.000000
6372,-2.000000,0.250000,11.000000
6373,-1.500000,0.250000,11.000000
6374,-1.000000,0.250000,11.000000
6375,-0.500000,0.250000,11.000000
6376,0.000000,0.250000,11.000000
6377,0.500000,0.250000,11.000000
6378,1.000000,0.250000,11.000000
6379,1.500000,0.250000,11.000000
6380,2.000000,0.250000,11.000000
6381,2.500000,0.250000,11.000000
6382,3.000000,0.250000,11.000000
6383,3.500000,0.250000,11.000000
6384,4.000000,0.250000,11.000000
6385,4.500000,0.250000,11.000000
6386,5.000000,0.250000,11.000000
6387,5.500000,0.250000,11.000000
6388,6.000000,0.250000,11.000000
6389,6.500000,0.250000,11.000000
6390,7.000000,0.250000,11.000000
6391,7.500000,0.250000,11.000000
6392,8.000000,0.250000,11.000000
6393,8.500000,0.250000,11.000000
6394,9.000000,0.250000,11.000000
6395,9.500000,0.250000,11.000000
6396,10.000000,0.250000,11.000000
6397,-10.000000,0.500000,11.000000
6398,-9.500000,0.500000,11.000000
6399,-9.000000,0.500000,11.000000
6400,-8.500000,0.500000,11.000000
6401,-8.000000,0.500000,11.000000
6402,-7.500000,0.500000,11.000000
6403,-7.000000,0.500000,11.000000
6404,-6.500000,0.500000,11.000000
6405,-6.000000,0.500000,11.000000
6406,-5.500000,0.500000,11.000000
6407,-5.000000,0.500000,11.000000
6408,-4.500000,0.500000,11.000000
6409,-4.000000,0.500000,11.000000
6410,-3.500000,0.500000,11.000000
6411,-3.000000,0.500000,11.000000
6412,-2.500000,0.500000,11.000000
6413,-2.000000,0.500000,11.000000
6414,-1.500000,0.500000,11.000000
6415,-1.000000,0.500000,11.000000
6416,-0.500000,0.500000,11.000000
6417,0.000000,0.500000,11.000000
6418,0.500000,0.500000,11.000000
6419,1.000000,0.500000,11.000000
6420,1.500000,0.500000,11.000000
6421,2.000000,0.500000,11.000000
6422,2.500000,0.500000,11.000000
6423,3.000000,0.500000,11.000000
6424,3.500000,0.500000,11.000000
6425,4.000000,0.500000,11.000000
6426,4.500000,0.500000,11.000000
6427,5.000000,0.500000,11.000000
6428,5.500000,0.500000,11.000000
6429,6.000000,0.500000,11.000000
6430,6.500000,0.500000,11.000000
6431,7.000000,0.500000,11.000000
6432,7.500000,0.500000,11.000000
6433,8.000000,0.500000,11.000000
6434,8.500000,0.500000,11.000000
6435,9.000000,0.500000,11.000000
6436,9.500000,0.500000,11.000000
6437,10.000000,0.500000,11.000000
6438,-10.000000,0.750000,11.000000
6439,-9.500000,0.750000,11.000000
6440,-9.000000,0.750000,11.000000
6441,-8.500000,0.750000,11.000000
6442,-8.000000,0.750000,11.000000
6443,-7.500000,0.750000,11.000000
6444,-7.000000,0.750000,11.000000
6445,-6.500000,0.750000,11.000000
6446,-6.000000,0.750000,11.000000
6447,-5.500000,0.750000,11.000000
6448,-5.000000,0.750000,11.000000
6449,-4.500000,0.750000,11.000000
6450,-4.000000,0.750000,11.000000
6451,-3.500000,0.750000,11.000000
6452,-3.000000,0.750000,11.000000
6453,-2.500000,0.750000,11.000000
6454,-2.000000,0.750000,11.000000
6455,-1.500000,0.750000,11.000000
6456,-1.000000,0.750000,11.000000
6457,-0.500000,0.750000,11.000000
6458,0.000000,0.750000,11.000000
6459,0.500000,0.750000,11.000000
6460,1.000000,0.750000,11.000000
6461,1.500000,0.750000,11.000000
6462,2.000000,0.750000,11.000000
6463,2.500000,0.750000,11.000000
6464,3.000000,0.750000,11.000000
6465,3.500000,0.750000,11.000000
6466,4.000000,0.750000,11.000000
6467,4.500000,0.750000,11.000000
6468,5.000000,0.750000,11.000000
6469,5.500000,0.750000,11.000000
6470,6.000000,0.750000,11.000000
6471,6.500000,0.750000,11.000000
6472,7.000000,0.750000,11.000000
6473,7.500000,0.750000,11.000000
6474,8.000000,0.750000,11.000000
6475,8.500000,0.750000,11.000000
6476,9.000000,0.750000,11.000000
6477,9.500000,0.750000,11.000000
6478,10.000000,0.750000,11.000000
6479,-10.000000,1.000000,11.000000
6480,-9.500000,1.000000,11.000000
6481,-9.000000,1.000000,11.000000
6482,-8.500000,1.000000,11.000000
6483,-8.000000,1.000000,11.000000
6484,-7.500000,1.000000,11.000000
6485,-7.000000,1.000000,11.000000
6486,-6.500000,1.000000,11.000000
6487,-6.000000,1.000000,11.000000
6488,-5.500000,1.000000,11.000000
6489,-5.000000,1.000000,11.000000
6490,-4.500000,1.000000,11.000000
6491,-4.000000,1.000000,11.000000
6492,-3.500000,1.000000,11.000000
6493,-3.000000,1.000000,11.000000
6494,-2.500000,1.000000,11.000000
6495,-2.000000,1.000000,11.000000
6496,-1.500000,1.000000,11.000000
6497,-1.000000,1.000000,11.000000
6498,-0.500000,1.000000,11.000000
6499,0.000000,1.000000,11.000000
6500,0.500000,1.000000,11.000000
6501,1.000000,1.000000,11.000000
6502,1.500000,1.000000,11.000000
6503,2.000000,1.000000,11.000000
6504,2.500000,1.000000,11.000000
6505,3.000000,1.000000,11.000000
6506,3.500000,1.000000,11.000000
6507,4.000000,1.000000,11.000000
6508,4.500000,1.000000,11.000000
6509,5.000000,1.000000,11.000000
6510,5.500000,1.000000,11.000000
6511,6.000000,1.000000,11.000000
6512,6.500000,1.000000,11.000000
6513,7.000000,1.000000,11.000000
6514,7.500000,1.000000,11.000000
6515,8.000000,1.000000,11.000000
6516,8.500000,1.000000,11.000000
6517,9.000000,1.000000,11.000000
6518,9.500000,1.000000,11.000000
6519,10.000000,1.000000,11.000000
6520,-10.000000,1.250000,11.000000
6521,-9.500000,1.250000,11.000000
6522,-9.000000,1.250000,11.000000
6523,-8.500000,1.250000,11.000000
6524,-8.000000,1.250000,11.000000
6525,-7.500000,1.250000,11.000000
6526,-7.000000,1.250000,11.000000
6527,-6.500000,1.250000,11.000000
6528,-6.000000,1.250000,11.000000
6529,-5.500000,1.250000,11.000000
6530,-5.000000,1.250000,11.000000
6531,-4.500000,1.250000,11.000000
6532,-4.000000,1.250000,11.000000
6533,-3.500000,1.250000,11.000000
6534,-3.000000,1.250000,11.000000
6535,-2.500000,1.250000,11.000000
6536,-2.000000,1.250000,11.000000
6537,-1.500000,1.250000,11.000000
6538,-1.000000,1.250000,11.000000
6539,-0.500000,1.250000,11.000000
6540,0.000000,1.250000,11.000000
6541,0.500000,1.250000,11.000000
6542,1.000000,1.250000,11.000000
6543,1.500000,1.250000,11.000000
6544,2.000000,1.250000,11.000000
6545,2.500000,1.250000,11.000000
6546,3.000000,1.250000,11.000000
6547,3.500000,1.250000,11.000000
6548,4.000000,1.250000,11.000000
6549,4.500000,1.250000,11.000000
6550,5.000000,1.250000,11.000000
6551,5.500000,1.250000,11.000000
6552,6.000000,1.250000,11.000000
6553,6.500000,1.250000,11.000000
6554,7.000000,1.250000,11.000000
6555,7.500000,1.250000,11.000000
6556,8.000000,1.250000,11.000000
6557,8.500000,1.250000,11.000000
6558,9.000000,1.250000,11.000000
6559,9.500000,1.250000,11.000000
6560,10.000000,1.250000,11.000000
6561,-10.000000,1.500000,11.000000
6562,-9.500000,1.500000,11.000000
6563,-9.000000,1.500000,11.000000
6564,-8.500000,1.500000,11.000000
6565,-8.000000,1.500000,11.000000
6566,-7.500000,1.500000,11.000000
6567,-7.000000,1.500000,11.000000
6568,-6.500000,1.500000,11.000000
6569,-6.000000,1.500000,11.000000
6570,-5.500000,1.500000,11.000000
6571,-5.000000,1.500000,11.000000
6572,-4.500000,1.500000,11.000000
6573,-4.000000,1.500000,11.000000
6574,-3.500000,1.500000,11.000000
6575,-3.000000,1.500000,11.000000
6576,-2.500000,1.500000,11.000000
6577,-2.000000,1.500000,11.000000
6578,-1.500000,1.500000,11.000000
6579,-1.000000,1.500000,11.000000
6580,-0.500000,1.500000,11.000000
6581,0.000000,1.500000,11.000000
6582,0.500000,1.500000,11.000000
6583,1.000000,1.500000,11.000000
6584,1.500000,1.500000,11.000000
6585,2.000000,1.500000,11.000000
6586,2.500000,1.500000,11.000000
6587,3.000000,1.500000,11.000000
6588,3.500000,1.500000,11.000000
6589,4.000000,1.500000,11.000000
6590,4.500000,1.500000,11.000000
6591,5.000000,1.500000,11.000000
6592,5.500000,1.500000,11.000000
6593,6.000000,1.500000,11.000000
6594,6.500000,1.500000,11.000000
6595,7.000000,1.500000,11.000000
6596,7.500000,1.500000,11.000000
6597,8.000000,1.500000,11.000000
6598,8.500000,1.500000,11.000000
6599,9.000000,1.500000,11.000000
6600,9.500000,1.500000,11.000000
6601,10.000000,1.500000,11.000000
6602,-10.000000,0.000000,11.500000
6603,-9.500000,0.000000,11.500000
6604,-9.000000,0.000000,11.500000
6605,-8.500000,0.000000,11.500000
6606,-8.000000,0.000000,11.500000
6607,-7.500000,0.000000,11.500000
6608,-7.000000,0.000000,11.500000
6609,-6.500000,0.000000,11.500000
6610,-6.000000,0.000000,11.500000
6611,-5.500000,0.000000,11.500000
6612,-5.000000,0.000000,11.500000
6613,-4.500000,0.000000,11.500000
6614,-4.000000,0.000000,11.500000
6615,-3.500000,0.000000,11.500000
6616,-3.000000,0.000000,11.500000
6617,-2.500000,0.000000,11.500000
6618,-2.000000,0.000000,11.500000
6619,-1.500000,0.000000,11.500000
6620,-1.000000,0.000000,11.500000
6621,-0.500000,0.000000,11.500000
6622,0.000000,0.000000,11.500000
6623,0.500000,0.000000,11.500000
6624,1.000000,0.000000,11.500000
6625,1.500000,0.000000,11.500000
6626,2.000000,0.000000,11.500000
6627,2.500000,0.000000,11.500000
6628,3.000000,0.000000,11.500000
6629,3.500000,0.000000,11.500000
6630,4.000000,0.000000,11.500000
6631,4.500000,0.000000,11.500000
6632,5.000000,0.000000,11.500000
6633,5.500000,0.000000,11.500000
6634,6.000000,0.000000,11.500000
6635,6.500000,0.000000,11.500000
6636,7.000000,0.000000,11.500000
6637,7.500000,0.000000,11.500000
6638,8.000000,0.000000,11.500000
6639,8.500000,0.000000,11.500000
6640,9.000000,0.000000,11.500000
6641,9.500000,0.000000,11.500000
6642,10.000000,0.000000,11.500000
6643,-10.000000,0.250000,11.500000
6644,-9.500000,0.250000,11.500000
6645,-9.000000,0.250000,11.500000
6646,-8.500000,0.250000,11.500000
6647,-8.000000,0.250000,11.500000
6648,-7.500000,0.250000,11.500000
6649,-7.000000,0.250000,11.500000
6650,-6.500000,0.250000,11.500000
6651,-6.000000,0.250000,11.500000
6652,-5.500000,0.250000,11.500000
6653,-5.000000,0.250000,11.500000
6654,-4.500000,0.250000,11.500000
6655,-4.000000,0.250000,11.500000
6656,-3.500000,0.250000,11.500000
6657,-3.000000,0.250000,11.500000
6658,-2.500000,0.250000,11.500000
6659,-2.000000,0.250000,11.500000
6660,-1.500000,0.250000,11.500000
6661,-1.000000,0.250000,11.500000
6662,-0.500000,0.250000,11.500000
6663,0.000000,0.250000,11.500000
6664,0.500000,0.250000,11.500000
6665,1.000000,0.250000,11.500000
6666,1.500000,0.250000,11.500000
6667,2.000000,0.250000,11.500000
6668,2.500000,0.250000,11.500000
6669,3.000000,0.250000,11.500000
6670,3.500000,0.250000,11.500000
6671,4.000000,0.250000,11.500000
6672,4.500000,0.250000,11.500000
6673,5.000000,0.250000,11.500000
6674,5.500000,0.250000,11.500000
6675,6.000000,0.250000,11.500000
6676,6.500000,0.250000,11.500000
6677,7.000000,0.250000,11.500000
6678,7.500000,0.250000,11.500000
6679,8.000000,0.250000,11.500000
6680,8.500000,0.250000,11.500000
6681,9.000000,0.250000,11.500000
6682,9.500000,0.250000,11.500000
6683,10.000000,0.250000,11.500000
6684,-10.000000,0.500000,11.500000
6685,-9.500000,0.500000,11.500000
6686,-9.000000,0.500000,11.500000
6687,-8.500000,0.500000,11.500000
6688,-8.000000,0.500000,11.500000
6689,-7.500000,0.500000,11.500000
6690,-7.000000,0.500000,11.500000
6691,-6.500000,0.500000,11.500000
6692,-6.000000,0.500000,11.500000
6693,-5.500000,0.500000,11.500000
6694,-5.000000,0.500000,11.500000
6695,-4.500000,0.500000,11.500000
6696,-4.000000,0.500000,11.500000
6697,-3.500000,0.500000,11.500000
6698,-3.000000,0.500000,11.500000
6699,-2.500000,0.500000,11.500000
6700,-2.000000,0.500000,11.500000
6701,-1.500000,0.500000,11.500000
6702,-1.000000,0.500000,11.500000
6703,-0.500000,0.500000,11.500000
6704,0.000000,0.500000,11.500000
6705,0.500000,0.500000,11.500000
6706,1.000000,0.500000,11.500000
6707,1.500000,0.500000,11.500000
6708,2.000000,0.500000,11.500000
6709,2.500000,0.500000,11.500000
6710,3.000000,0.500000,11.500000
6711,3.500000,0.500000,11.500000
6712,4.000000,0.500000,11.500000
6713,4.500000,0.500000,11.500000
6714,5.000000,0.500000,11.500000
6715,5.500000,0.500000,11.500000
6716,6.000000,0.500000,11.500000
6717,6.500000,0.500000,11.500000
6718,7.000000,0.500000,11.500000
6719,7.500000,0.500000,11.500000
6720,8.000000,0.500000,11.500000
6721,8.500000,0.500000,11.500000
6722,9.000000,0.500000,11.500000
6723,9.500000,0.500000,11.500000
6724,10.000000,0.500000,11.500000
6725,-10.000000,0.750000,11.500000
6726,-9.500000,0.750000,11.500000
6727,-9.000000,0.750000,11.500000
6728,-8.500000,0.750000,11.500000
6729,-8.000000,0.750000,11.500000
6730,-7.500000,0.750000,11.500000
6731,-7.000000,0.750000,11.500000
6732,-6.500000,0.750000,11.500000
6733,-6.000000,0.750000,11.500000
6734,-5.500000,0.750000,11.500000
6735,-5.000000,0.750000,11.500000
6736,-4.500000,0.750000,11.500000
6737,-4.000000,0.750000,11.500000
6738,-3.500000,0.750000,11.500000
6739,-3.000000,0.750000,11.500000
6740,-2.500000,0.750000,11.500000
6741,-2.000000,0.750000,11.500000
6742,-1.500000,0.750000,11.500000
6743,-1.000000,0.750000,11.500000
6744,-0.500000,0.750000,11.500000
6745,0.000000,0.750000,11.500000
6746,0.500000,0.750000,11.500000
6747,1.000000,0.750000,11.500000
6748,1.500000,0.750000,11.500000
6749,2.000000,0.750000,11.500000
6750,2.500000,0.750000,11.500000
6751,3.000000,0.750000,11.500000
6752,3.500000,0.750000,11.500000
6753,4.000000,0.750000,11.500000
6754,4.500000,0.750000,11.500000
6755,5.000000,0.750000,11.500000
6756,5.500000,0.750000,11.500000
6757,6.000000,0.750000,11.500000
6758,6.500000,0.750000,11.500000
6759,7.000000,0.750000,11.500000
6760,7.500000,0.750000,11.500000
6761,8.000000,0.750000,11.500000
6762,8.500000,0.750000,11.500000
6763,9.000000,0.750000,11.500000
6764,9.500000,0.750000,11.500000
6765,10.000000,0.750000,11.500000
6766,-10.000000,1.000000,11.500000
6767,-9.500000,1.000000,11.500000
6768,-9.000000,1.000000,11.500000
6769,-8.500000,1.000000,11.500000
6770,-8.000000,1.000000,11.500000
6771,-7.500000,1.000000,11.500000
6772,-7.000000,1.000000,11.500000
6773,-6.500000,1.000000,11.500000
6774,-6.000000,1.000000,11.500000
6775,-5.500000,1.000000,11.500000
6776,-5.000000,1.000000,11.500000
6777,-4.500000,1.000000,11.500000
6778,-4.000000,1.000000,11.500000
6779,-3.500000,1.000000,11.500000
6780,-3.000000,1.000000,11.500000
6781,-2.500000,1.000000,11.500000
6782,-2.000000,1.000000,11.500000
6783,-1.500000,1.000000,11.500000
6784,-1.000000,1.000000,11.500000
6785,-0.500000,1.000000,11.500000
6786,0.000000,1.000000,11.500000
6787,0.500000,1.000000,11.500000
6788,1.000000,1.000000,11.500000
6789,1.500000,1.000000,11.500000
6790,2.000000,1.000000,11.500000
6791,2.500000,1.000000,11.500000
6792,3.000000,1.000000,11.500000
6793,3.500000,1.000000,11.500000
6794,4.000000,1.000000,11.500000
6795,4.500000,1.000000,11.500000
6796,5.000000,1.000000,11.500000
6797,5.500000,1.000000,11.500000
6798,6.000000,1.000000,11.500000
6799,6.500000,1.000000,11.500000
6800,7.000000,1.000000,11.500000
6801,7.500000,1.000000,11.500000
6802,8.000000,1.000000,11.500000
6803,8.500000,1.000000,11.500000
6804,9.000000,1.000000,11.500000
6805,9.500000,1.000000,11.500000
6806,10.000000,1.000000,11.500000
6807,-10.000000,1.250000,11.500000
6808,-9.500000,1.250000,11.500000
6809,-9.000000,1.250000,11.500000
6810,-8.500000,1.250000,11.500000
6811,-8.000000,1.250000,11.500000
6812,-7.500000,1.250000,11.500000
6813,-7.000000,1.250000,11.500000
6814,-6.500000,1.250000,11.500000
6815,-6.000000,1.250000,11.500000
6816,-5.500000,1.250000,11.500000
6817,-5.000000,1.250000,11.500000
6818,-4.500000,1.250000,11.500000
6819,-4.000000,1.250000,11.500000
6820,-3.500000,1.250000,11.500000
6821,-3.000000,1.250000,11.500000
6822,-2.500000,1.250000,11.500000
6823,-2.000000,1.250000,11.500000
6824,-1.500000,1.250000,11.500000
6825,-1.000000,1.250000,11.500000
6826,-0.500000,1.250000,11.500000
6827,0.000000,1.250000,11.500000
6828,0.500000,1.250000,11.500000
6829,1.000000,1.250000,11.500000
6830,1.500000,1.250000,11.500000
6831,2.000000,1.250000,11.500000
6832,2.500000,1.250000,11.500000
6833,3.000000,1.250000,11.500000
6834,3.500000,1.250000,11.500000
6835,4.000000,1.250000,11.500000
6836,4.500000,1.250000,11.500000
6837,5.000000,1.250000,11.500000
6838,5.500000,1.250000,11.500000
6839,6.000000,1.250000,11.500000
6840,6.500000,1.250000,11.500000
6841,7.000000,1.250000,11.500000
6842,7.500000,1.250000,11.500000
6843,8.000000,1.250000,11.500000
6844,8.500000,1.250000,11.500000
6845,9.000000,1.250000,11.500000
6846,9.500000,1.250000,11.500000
6847,10.000000,1.250000,11.500000
6848,-10.000000,1.500000,11.500000
6849,-9.500000,1.500000,11.500000
6850,-9.000000,1.500000,11.500000
6851,-8.500000,1.500000,11.500000
6852,-8.000000,1.500000,11.500000
6853,-7.500000,1.500000,11.500000
6854,-7.000000,1.500000,11.500000
6855,-6.500000,1.500000,11.500000
6856,-6.000000,1.500000,11.500000
6857,-5.500000,1.500000,11.500000
6858,-5.000000,1.500000,11.500000
6859,-4.500000,1.500000,11.500000
6860,-4.000000,1.500000,11.500000
6861,-3.500000,1.500000,11.500000
6862,-3.000000,1.500000,11.500000
6863,-2.500000,1.500000,11.500000
6864,-2.000000,1.500000,11.500000
6865,-1.500000,1.500000,11.500000
6866,-1.000000,1.500000,11.500000
6867,-0.500000,1.500000,11.500000
6868,0.000000,1.500000,11.500000
6869,0.500000,1.500000,11.500000
6870,1.000000,1.500000,11.500000
6871,1.500000,1.500000,11.500000
6872,2.000000,1.500000,11.500000
6873,2.500000,1.500000,11.500000
6874,3.000000,1.500000,11.500000
6875,3.500000,1.500000,11.500000
6876,4.000000,1.500000,11.500000
6877,4.500000,1.500000,11.500000
6878,5.000000,1.500000,11.500000
6879,5.500000,1.500000,11.500000
6880,6.000000,1.500000,11.500000
6881,6.500000,1.500000,11.500000
6882,7.000000,1.500000,11.500000
6883,7.500000,1.500000,11.500000
6884,8.000000,1.500000,11.500000
6885,8.500000,1.500000,11.500000
6886,9.000000,1.500000,11.500000
6887,9.500000,1.500000,11.500000
6888,10.000000,1.500000,11.500000
6889,-10.000000,0.000000,12.000000
6890,-9.500000,0.000000,12.000000
6891,-9.000000,0.000000,12.000000
6892,-8.500000,0.000000,12.000000
6893,-8.000000,0.000000,12.000000
6894,-7.500000,0.000000,12.000000
6895,-7.000000,0.000000,12.000000
6896,-6.500000,0.000000,12.000000
6897,-6.000000,0.000000,12.000000
6898,-5.500000,0.000000,12.000000
6899,-5.000000,0.000000,12.000000
6900,-4.500000,0.000000,12.000000
6901,-4.000000,0.000000,12.000000
6902,-3.500000,0.000000,12.000000
6903,-3.000000,0.000000,12.000000
6904,-2.500000,0.000000,12.000000
6905,-2.000000,0.000000,12.000000
6906,-1.500000,0.000000,12.000000
6907,-1.000000,0.000000,12.000000
6908,-0.500000,0.000000,12.000000
6909,0.000000,0.000000,12.000000
6910,0.500000,0.000000,12.000000
6911,1.000000,0.000000,12.000000
6912,1.500000,0.000000,12.000000
6913,2.000000,0.000000,12.000000
6914,2.500000,0.000000,12.000000
6915,3.000000,0.000000,12.000000
6916,3.500000,0.000000,12.000000
6917,4.000000,0.000000,12.000000
6918,4.500000,0.000000,12.000000
6919,5.000000,0.000000,12.000000
6920,5.500000,0.000000,12.000000
6921,6.000000,0.000000,12.000000
6922,6.500000,0.000000,12.000000
6923,7.000000,0.000000,12.000000
6924,7.500000,0.000000,12.000000
6925,8.000000,0.000000,12.000000
6926,8.500000,0.000000,12.000000
6927,9.000000,0.000000,12.000000
6928,9.500000,0.000000,12.000000
6929,10.000000,0.000000,12.000000
6930,-10.000000,0.250000,12.000000
6931,-9.500000,0.250000,12.000000
6932,-9.000000,0.250000,12.000000
6933,-8.500000,0.250000,12.000000
6934,-8.000000,0.250000,12.000000
6935,-7.500000,0.250000,12.000000
6936,-7.000000,0.250000,12.000000
6937,-6.500000,0.250000,12.000000
6938,-6.000000,0.250000,12.000000
6939,-5.500000,0.250000,12.000000
6940,-5.000000,0.250000,12.000000
6941,-4.500000,0.250000,12.000000
6942,-4.000000,0.250000,12.000000
6943,-3.500000,0.250000,12.000000
6944,-3.000000,0.250000,12.000000
6945,-2.500000,0.250000,12.000000
6946,-2.000000,0.250000,12.000000
6947,-1.500000,0.250000,12.000000
6948,-1.000000,0.250000,12.000000
6949,-0.500000,0.250000,12.000000
6950,0.000000,0.250000,12.000000
6951,0.500000,0.250000,12.000000
6952,1.000000,0.250000,12.000000
6953,1.500000,0.250000,12.000000
6954,2.000000,0.250000,12.000000
6955,2.500000,0.250000,12.000000
6956,3.000000,0.250000,12.000000
6957,3.500000,0.250000,12.000000
6958,4.000000,0.250000,12.000000
6959,4.500000,0.250000,12.000000
6960,5.000000,0.250000,12.000000
6961,5.500000,0.250000,12.000000
6962,6.000000,0.250000,12.000000
6963,6.500000,0.250000,12.000000
6964,7.000000,0.250000,12.000000
6965,7.500000,0.250000,12.000000
6966,8.000000,0.250000,12.000000
6967,8.500000,0.250000,12.000000
6968,9.000000,0.250000,12.000000
6969,9.500000,0.250000,12.000000
6970,10.000000,0.250000,12.000000
6971,-10.000000,0.500000,12.000000
6972,-9.500000,0.500000,12.000000
6973,-9.000000,0.500000,12.000000
6974,-8.500000,0.500000,12.000000
6975,-8.000000,0.500000,12.000000
6976,-7.500000,0.500000,12.000000
6977,-7.000000,0.500000,12.000000
6978,-6.500000,0.500000,12.000000
6979,-6.000000,0.500000,12.000000
6980,-5.500000,0.500000,12.000000
6981,-5.000000,0.500000,12.000000
6982,-4.500000,0.500000,12.000000
6983,-4.000000,0.500000,12.000000
6984,-3.500000,0.500000,12.000000
6985,-3.000000,0.500000,12.000000
6986,-2.500000,0.500000,12.000000
6987,-2.000000,0.500000,12.000000
6988,-1.500000,0.500000,12.000000
6989,-1.000000,0.500000,12.000000
6990,-0.500000,0.500000,12.000000
6991,0.000000,0.500000,12.000000
6992,0.500000,0.500000,12.000000
6993,1.000000,0.500000,12.000000
6994,1.500000,0.500000,12.000000
6995,2.000000,0.500000,12.000000
6996,2.500000,0.500000,12.000000
6997,3.000000,0.500000,12.000000
6998,3.500000,0.500000,12.000000
6999,4.000000,0.500000,12.000000
7000,4.500000,0.500000,12.000000
7001,5.000000,0.500000,12.000000
7002,5.500000,0.500000,12.000000
7003,6.000000,0.500000,12.000000
7004,6.500000,0.500000,12.000000
7005,7.000000,0.500000,12.000000
7006,7.500000,0.500000,12.000000
7007,8.000000,0.500000,12.000000
7008,8.500000,0.500000,12.000000
7009,9.000000,0.500000,12.000000
7010,9.500000,0.500000,12.000000
7011,10.000000,0.500000,12.000000
7012,-10.000000,0.750000,12.000000
7013,-9.500000,0.750000,12.000000
7014,-9.000000,0.750000,12.000000
7015,-8.500000,0.750000,12.000000
7016,-8.000000,0.750000,12.000000
7017,-7.500000,0.750000,12.000000
7018,-7.000000,0.750000,12.000000
7019,-6.500000,0.750000,12.000000
7020,-6.000000,0.750000,12.000000
7021,-5.500000,0.750000,12.000000
7022,-5.000000,0.750000,12.000000
7023,-4.500000,0.750000,12.000000
7024,-4.000000,0.750000,12.000000
7025,-3.500000,0.750000,12.000000
7026,-3.000000,0.750000,12.000000
7027,-2.500000,0.750000,12.000000
7028,-2.000000,0.750000,12.000000
7029,-1.500000,0.750000,12.000000
7030,-1.000000,0.750000,12.000000
7031,-0.500000,0.750000,12.000000
7032,0.000000,0.750000,12.000000
7033,0.500000,0.750000,12.000000
7034,1.000000,0.750000,12.000000
7035,1.500000,0.750000,12.000000
7036,2.000000,0.750000,12.000000
7037,2.500000,0.750000,12.000000
7038,3.000000,0.750000,12.000000
7039,3.500000,0.750000,12.000000
7040,4.000000,0.750000,12.000000
7041,4.500000,0.750000,12.000000
7042,5.000000,0.750000,12.000000
7043,5.500000,0.750000,12.000000
7044,6.000000,0.750000,12.000000
7045,6.500000,0.750000,12.000000
7046,7.000000,0.750000,12.000000
7047,7.500000,0.750000,12.000000
7048,8.000000,0.750000,12.000000
7049,8.500000,0.750000,12.000000
7050,9.000000,0.750000,12.000000
7051,9.500000,0.750000,12.000000
7052,10.000000,0.750000,12.000000
7053,-10.000000,1.000000,12.000000
7054,-9.500000,1.000000,12.000000
7055,-9.000000,1.000000,12.000000
7056,-8.500000,1.000000,12.000000
7057,-8.000000,1.000000,12.000000
7058,-7.500000,1.000000,12.000000
7059,-7.000000,1.000000,12.000000
7060,-6.500000,1.000000,12.000000
7061,-6.000000,1.000000,12.000000
7062,-5.500000,1.000000,12.000000
7063,-5.000000,1.000000,12.000000
7064,-4.500000,1.000000,12.000000
7065,-4.000000,1.000000,12.000000
7066,-3.500000,1.000000,12.000000
7067,-3.000000,1.000000,12.000000
7068,-2.500000,1.000000,12.000000
7069,-2.000000,1.000000,12.000000
7070,-1.500000,1.000000,12.000000
7071,-1.000000,1.000000,12.000000
7072,-0.500000,1.000000,12.000000
7073,0.000000,1.000000,12.000000
7074,0.500000,1.000000,12.000000
7075,1.000000,1.000000,12.000000
7076,1.500000,1.000000,12.000000
7077,2.000000,1.000000,12.000000
7078,2.500000,1.000000,12.000000
7079,3.000000,1.000000,12.000000
7080,3.500000,1.000000,12.000000
7081,4.000000,1.000000,12.000000
7082,4.500000,1.000000,12.000000
7083,5.000000,1.000000,12.000000
7084,5.500000,1.000000,12.000000
7085,6.000000,1.000000,12.000000
7086,6.500000,1.000000,12.000000
7087,7.000000,1.000000,12.000000
7088,7.500000,1.000000,12.000000
7089,8.000000,1.000000,12.000000
7090,8.500000,1.000000,12.000000
7091,9.000000,1.000000,12.000000
7092,9.500000,1.000000,12.000000
7093,10.000000,1.000000,12.000000
7094,-10.000000,1.250000,12.000000
7095,-9.500000,1.250000,12.000000
7096,-9.000000,1.250000,12.000000
7097,-8.500000,1.250000,12.000000
7098,-8.000000,1.250000,12.000000
7099,-7.500000,1.250000,12.000000
7100,-7.000000,1.250000,12.000000
7101,-6.500000,1.250000,12.000000
7102,-6.000000,1.250000,12.000000
7103,-5.500000,1.250000,12.000000
7104,-5.000000,1.250000,12.000000
7105,-4.500000,1.250000,12.000000
7106,-4.000000,1.250000,12.000000
7107,-3.500000,1.250000,12.000000
7108,-3.000000,1.250000,12.000000
7109,-2.500000,1.250000,12.000000
7110,-2.000000,1.250000,12.000000
7111,-1.500000,1.250000,12.000000
7112,-1.000000,1.250000,12.000000
7113,-0.500000,1.250000,12.000000
7114,0.000000,1.250000,12.000000
7115,0.500000,1.250000,12.000000
7116,1.000000,1.250000,12.000000
7117,1.500000,1.250000,12.000000
7118,2.000000,1.250000,12.000000
7119,2.500000,1.250000,12.000000
7120,3.000000,1.250000,12.000000
7121,3.500000,1.250000,12.000000
7122,4.000000,1.250000,12.000000
7123,4.500000,1.250000,12.000000
7124,5.000000,1.250000,12.000000
7125,5.500000,1.250000,12.000000
7126,6.000000,1.250000,12.000000
7127,6.500000,1.250000,12.000000
7128,7.000000,1.250000,12.000000
7129,7.500000,1.250000,12.000000
7130,8.000000,1.250000,12.000000
7131,8.500000,1.250000,12.000000
7132,9.000000,1.250000,12.000000
7133,9.500000,1.250000,12.000000
7134,10.000000,1.250000,12.000000
7135,-10.000000,1.500000,12.000000
7136,-9.500000,1.500000,12.000000
7137,-9.000000,1.500000,12.000000
7138,-8.500000,1.500000,12.000000
7139,-8.000000,1.500000,12.000000
7140,-7.500000,1.500000,12.000000
7141,-7.000000,1.500000,12.000000
7142,-6.500000,1.500000,12.000000
7143,-6.000000,1.500000,12.000000
7144,-5.500000,1.500000,12.000000
7145,-5.000000,1.500000,12.000000
7146,-4.500000,1.500000,12.000000
7147,-4.000000,1.500000,12.000000
7148,-3.500000,1.500000,12.000000
7149,-3.000000,1.500000,12.000000
7150,-2.500000,1.500000,12.000000
7151,-2.000000,1.500000,12.000000
7152,-1.500000,1.500000,12.000000
7153,-1.000000,1.500000,12.000000
7154,-0.500000,1.500000,12.000000
7155,0.000000,1.500000,12.000000
7156,0.500000,1.500000,12.000000
7157,1.000000,1.500000,12.000000
7158,1.500000,1.500000,12.000000
7159,2.000000,1.500000,12.000000
7160,2.500000,1.500000,12.000000
7161,3.000000,1.500000,12.000000
7162,3.500000,1.500000,12.000000
7163,4.000000,1.500000,12.000000
7164,4.500000,1.500000,12.000000
7165,5.000000,1.500000,12.000000
7166,5.500000,1.500000,12.000000
7167,6.000000,1.500000,12.000000
7168,6.500000,1.500000,12.000000
7169,7.000000,1.500000,12.000000
7170,7.500000,1.500000,12.000000
7171,8.000000,1.500000,12.000000
7172,8.500000,1.500000,12.000000
7173,9.000000,1.500000,12.000000
7174,9.500000,1.500000,12.000000
7175,10.000000,1.500000,12.000000
7176,-10.000000,0.000000,12.500000
7177,-9.500000,0.000000,12.500000
7178,-9.000000,0.000000,12.500000
7179,-8.500000,0.000000,12.500000
7180,-8.000000,0.000000,12.500000
7181,-7.500000,0.000000,12.500000
7182,-7.000000,0.000000,12.500000
7183,-6.500000,0.000000,12.500000
7184,-6.000000,0.000000,12.500000
7185,-5.500000,0.000000,12.500000
7186,-5.000000,0.000000,12.500000
7187,-4.500000,0.000000,12.500000
7188,-4.000000,0.000000,12.500000
7189,-3.500000,0.000000,12.500000
7190,-3.000000,0.000000,12.500000
7191,-2.500000,0.000000,12.500000
7192,-2.000000,0.000000,12.500000
7193,-1.500000,0.000000,12.500000
7194,-1.000000,0.000000,12.500000
7195,-0.500000,0.000000,12.500000
7196,0.000000,0.000000,12.500000
7197,0.500000,0.000000,12.500000
7198,1.000000,0.000000,12.500000
7199,1.500000,0.000000,12.500000
7200,2.000000,0.000000,12.500000
7201,2.500000,0.000000,12.500000
7202,3.000000,0.000000,12.500000
7203,3.500000,0.000000,12.500000
7204,4.000000,0.000000,12.500000
7205,4.500000,0.000000,12.500000
7206,5.000000,0.000000,12.500000
7207,5.500000,0.000000,12.500000
7208,6.000000,0.000000,12.500000
7209,6.500000,0.000000,12.500000
7210,7.000000,0.000000,12.500000
7211,7.500000,0.000000,12.500000
7212,8.000000,0.000000,12.500000
7213,8.500000,0.000000,12.500000
7214,9.000000,0.000000,12.500000
7215,9.500000,0.000000,12.500000
7216,10.000000,0.000000,12.500000
7217,-10.000000,0.250000,12.500000
7218,-9.500000,0.250000,12.500000
7219,-9.000000,0.250000,12.500000
7220,-8.500000,0.250000,12.500000
7221,-8.000000,0.250000,12.500000
7222,-7.500000,0.250000,12.500000
7223,-7.000000,0.250000,12.500000
7224,-6.500000,0.250000,12.500000
7225,-6.000000,0.250000,12.500000
7226,-5.500000,0.250000,12.500000
7227,-5.000000,0.250000,12.500000
7228,-4.500000,0.250000,12.500000
7229,-4.000000,0.250000,12.500000
7230,-3.500000,0.250000,12.500000
7231,-3.000000,0.250000,12.500000
7232,-2.500000,0.250000,12.500000
7233,-2.000000,0.250000,12.500000
7234,-1.500000,0.250000,12.500000
7235,-1.000000,0.250000,12.500000
7236,-0.500000,0.250000,12.500000
7237,0.000000,0.250000,12.500000
7238,0.500000,0.250000,12.500000
7239,1.000000,0.250000,12.500000
7240,1.500000,0.250000,12.500000
7241,2.000000,0.250000,12.500000
7242,2.500000,0.250000,12.500000
7243,3.000000,0.250000,12.500000
7244,3.500000,0.250000,12.500000
7245,4.000000,0.250000,12.500000
7246,4.500000,0.250000,12.500000
7247,5.000000,0.250000,12.500000
7248,5.500000,0.250000,12.500000
7249,6.000000,0.250000,12.500000
7250,6.500000,0.250000,12.500000
7251,7.000000,0.250000,12.500000
7252,7.500000,0.250000,12.500000
7253,8.000000,0.250000,12.500000
7254,8.500000,0.250000,12.500000
7255,9.000000,0.250000,12.500000
7256,9.500000,0.250000,12.500000
7257,10.000000,0.250000,12.500000
7258,-10.000000,0.500000,12.500000
7259,-9.500000,0.500000,12.500000
7260,-9.000000,0.500000,12.500000
7261,-8.500000,0.500000,12.500000
7262,-8.000000,0.500000,12.500000
7263,-7.500000,0.500000,12.500000
7264,-7.000000,0.500000,12.500000
7265,-6.500000,0.500000,12.500000
7266,-6.000000,0.500000,12.500000
7267,-5.500000,0.500000,12.500000
7268,-5.000000,0.500000,12.500000
7269,-4.500000,0.500000,12.500000
7270,-4.000000,0.500000,12.500000
7271,-3.500000,0.500000,12.500000
7272,-3.000000,0.500000,12.500000
7273,-2.500000,0.500000,12.500000
7274,-2.000000,0.500000,12.500000
7275,-1.500000,0.500000,12.500000
7276,-1.000000,0.500000,12.500000
7277,-0.500000,0.500000,12.500000
7278,0.000000,0.500000,12.500000
7279,0.500000,0.500000,12.500000
7280,1.000000,0.500000,12.500000
7281,1.500000,0.500000,12.500000
7282,2.000000,0.500000,12.500000
7283,2.500000,0.500000,12.500000
7284,3.000000,0.500000,12.500000
7285,3.500000,0.500000,12.500000
7286,4.000000,0.500000,12.500000
7287,4.500000,0.500000,12.500000
7288,5.000000,0.500000,12.500000
7289,5.500000,0.500000,12.500000
7290,6.000000,0.500000,12.500000
7291,6.500000,0.500000,12.500000
7292,7.000000,0.500000,12.500000
7293,7.500000,0.500000,12.500000
7294,8.000000,0.500000,12.500000
7295,8.500000,0.500000,12.500000
7296,9.000000,0.500000,12.500000
7297,9.500000,0.500000,12.500000
7298,10.000000,0.500000,12.500000
7299,-10.000000,0.750000,12.500000
7300,-9.500000,0.750000,12.500000
7301,-9.000000,0.750000,12.500000
7302,-8.500000,0.750000,12.500000
7303,-8.000000,0.750000,12.500000
7304,-7.500000,0.750000,12.500000
7305,-7.000000,0.750000,12.500000
7306,-6.500000,0.750000,12.500000
7307,-6.000000,0.750000,12.500000
7308,-5.500000,0.750000,12.500000
7309,-5.000000,0.750000,12.500000
7310,-4.500000,0.750000,12.500000
7311,-4.000000,0.750000,12.500000
7312,-3.500000,0.750000,12.500000
7313,-3.000000,0.750000,12.500000
7314,-2.500000,0.750000,12.500000
7315,-2.000000,0.750000,12.500000
7316,-1.500000,0.750000,12.500000
7317,-1.000000,0.750000,12.500000
7318,-0.500000,0.750000,12.500000
7319,0.000000,0.750000,12.500000
7320,0.500000,0.750000,12.500000
7321,1.000000,0.750000,12.500000
7322,1.500000,0.750000,12.500000
7323,2.000000,0.750000,12.500000
7324,2.500000,0.750000,12.500000
7325,3.000000,0.750000,12.500000
7326,3.500000,0.750000,12.500000
7327,4.000000,0.750000,12.500000
7328,4.500000,0.750000,12.500000
7329,5.000000,0.750000,12.500000
7330,5.500000,0.750000,12.500000
7331,6.000000,0.750000,12.500000
7332,6.500000,0.750000,12.500000
7333,7.000000,0.750000,12.500000
7334,7.500000,0.750000,12.500000
7335,8.000000,0.750000,12.500000
7336,8.500000,0.750000,12.500000
7337,9.000000,0.750000,12.500000
7338,9.500000,0.750000,12.500000
7339,10.000000,0.750000,12.500000
7340,-10.000000,1.000000,12.500000
7341,-9.500000,1.000000,12.500000
7342,-9.000000,1.000000,12.500000
7343,-8.500000,1.000000,12.500000
7344,-8.000000,1.000000,12.500000
7345,-7.500000,1.000000,12.500000
7346,-7.000000,1.000000,12.500000
7347,-6.500000,1.000000,12.500000
7348,-6.000000,1.000000,12.500000
7349,-5.500000,1.000000,12.500000
7350,-5.000000,1.000000,12.500000
7351,-4.500000,1.000000,12.500000
7352,-4.000000,1.000000,12.500000
7353,-3.500000,1.000000,12.500000
7354,-3.000000,1.000000,12.500000
7355,-2.500000,1.000000,12.500000
7356,-2.000000,1.000000,12.500000
7357,-1.500000,1.000000,12.500000
7358,-1.000000,1.000000,12.500000
7359,-0.500000,1.000000,12.500000
7360,0.000000,1.000000,12.500000
7361,0.500000,1.000000,12.500000
7362,1.000000,1.000000,12.500000
7363,1.500000,1.000000,12.500000
7364,2.000000,1.000000,12.500000
7365,2.500000,1.000000,12.500000
7366,3.000000,1.000000,12.500000
7367,3.500000,1.000000,12.500000
7368,4.000000,1.000000,12.500000
7369,4.500000,1.000000,12.500000
7370,5.000000,1.000000,12.500000
7371,5.500000,1.000000,12.500000
7372,6.000000,1.000000,12.500000
7373,6.500000,1.000000,12.500000
7374,7.000000,1.000000,12.500000
7375,7.500000,1.000000,12.500000
7376,8.000000,1.000000,12.500000
7377,8.500000,1.000000,12.500000
7378,9.000000,1.000000,12.500000
7379,9.500000,1.000000,12.500000
7380,10.000000,1.000000,12.500000
7381,-10.000000,1.250000,12.500000
7382,-9.500000,1.250000,12.500000
7383,-9.000000,1.250000,12.500000
7384,-8.500000,1.250000,12.500000
7385,-8.000000,1.250000,12.500000
7386,-7.500000,1.250000,12.500000
7387,-7.000000,1.250000,12.500000
7388,-6.500000,1.250000,12.500000
7389,-6.000000,1.250000,12.500000
7390,-5.500000,1.250000,12.500000
7391,-5.000000,1.250000,12.500000
7392,-4.500000,1.250000,12.500000
7393,-4.000000,1.250000,12.500000
7394,-3.500000,1.250000,12.500000
7395,-3.000000,1.250000,12.500000
7396,-2.500000,1.250000,12.500000
7397,-2.000000,1.250000,12.500000
7398,-1.500000,1.250000,12.500000
7399,-1.000000,1.250000,12.500000
7400,-0.500000,1.250000,12.500000
7401,0.000000,1.250000,12.500000
7402,0.500000,1.250000,12.500000
7403,1.000000,1.250000,12.500000
7404,1.500000,1.250000,12.500000
7405,2.000000,1.250000,12.500000
7406,2.500000,1.250000,12.500000
7407,3.000000,1.250000,12.500000
7408,3.500000,1.250000,12.500000
7409,4.000000,1.250000,12.500000
7410,4.500000,1.250000,12.500000
7411,5.000000,1.250000,12.500000
7412,5.500000,1.250000,12.500000
7413,6.000000,1.250000,12.500000
7414,6.500000,1.250000,12.500000
7415,7.000000,1.250000,12.500000
7416,7.500000,1.250000,12.500000
7417,8.000000,1.250000,12.500000
7418,8.500000,1.250000,12.500000
7419,9.000000,1.250000,12.500000
7420,9.500000,1.250000,12.500000
7421,10.000000,1.250000,12.500000
7422,-10.000000,1.500000,12.500000
7423,-9.500000,1.500000,12.500000
7424,-9.000000,1.500000,12.500000
7425,-8.500000,1.500000,12.500000
7426,-8.000000,1.500000,12.500000
7427,-7.500000,1.500000,12.500000
7428,-7.000000,1.500000,12.500000
7429,-6.500000,1.500000,12.500000
7430,-6.000000,1.500000,12.500000
7431,-5.500000,1.500000,12.500000
7432,-5.000000,1.500000,12.500000
7433,-4.500000,1.500000,12.500000
7434,-4.000000,1.500000,12.500000
7435,-3.500000,1.500000,12.500000
7436,-3.000000,1.500000,12.500000
7437,-2.500000,1.500000,12.500000
7438,-2.000000,1.500000,12.500000
7439,-1.500000,1.500000,12.500000
7440,-1.000000,1.500000,12.500000
7441,-0.500000,1.500000,12.500000
7442,0.000000,1.500000,12.500000
7443,0.500000,1.500000,12.500000
7444,1.000000,1.500000,12.500000
7445,1.500000,1.500000,12.500000
7446,2.000000,1.500000,12.500000
7447,2.500000,1.500000,12.500000
7448,3.000000,1.500000,12.500000
7449,3.500000,1.500000,12.500000
7450,4.000000,1.500000,12.500000
7451,4.500000,1.500000,12.500000
7452,5.000000,1.500000,12.500000
7453,5.500000,1.500000,12.500000
7454,6.000000,1.500000,12.500000
7455,6.500000,1.500000,12.500000
7456,7.000000,1.500000,12.500000
7457,7.500000,1.500000,12.500000
7458,8.000000,1.500000,12.500000
7459,8.500000,1.500000,12.500000
7460,9.000000,1.500000,12.500000
7461,9.500000,1.500000,12.500000
7462,10.000000,1.500000,12.500000
7463,-10.000000,0.000000,13.000000
7464,-9.500000,0.000000,13.000000
7465,-9.000000,0.000000,13.000000
7466,-8.500000,0.000000,13.000000
7467,-8.000000,0.000000,13.000000
7468,-7.500000,0.000000,13.000000
7469,-7.000000,0.000000,13.000000
7470,-6.500000,0.000000,13.000000
7471,-6.000000,0.000000,13.000000
7472,-5.500000,0.000000,13.000000
7473,-5.000000,0.000000,13.000000
7474,-4.500000,0.000000,13.000000
7475,-4.000000,0.000000,13.000000
7476,-3.500000,0.000000,13.000000
7477,-3.000000,0.000000,13.000000
7478,-2.500000,0.000000,13.000000
7479,-2.000000,0.000000,13.000000
7480,-1.500000,0.000000,13.000000
7481,-1.000000,0.000000,13.000000
7482,-0.500000,0.000000,13.000000
7483,0.000000,0.000000,13.000000
7484,0.500000,0.000000,13.000000
7485,1.000000,0.000000,13.000000
7486,1.500000,0.000000,13.000000
7487,2.000000,0.000000,13.000000
7488,2.500000,0.000000,13.000000
7489,3.000000,0.000000,13.000000
7490,3.500000,0.000000,13.000000
7491,4.000000,0.000000,13.000000
7492,4.500000,0.000000,13.000000
7493,5.000000,0.000000,13.000000
7494,5.500000,0.000000,13.000000
7495,6.000000,0.000000,13.000000
7496,6.500000,0.000000,13.000000
7497,7.000000,0.000000,13.000000
7498,7.500000,0.000000,13.000000
7499,8.000000,0.000000,13.000000
7500,8.500000,0.000000,13.000000
7501,9.000000,0.000000,13.000000
7502,9.500000,0.000000,13.000000
7503,10.000000,0.000000,13.000000
7504,-10.000000,0.250000,13.000000
7505,-9.500000,0.250000,13.000000
7506,-9.000000,0.250000,13.000000
7507,-8.500000,0.250000,13.000000
7508,-8.000000,0.250000,13.000000
7509,-7.500000,0.250000,13.000000
7510,-7.000000,0.250000,13.000000
7511,-6.500000,0.250000,13.000000
7512,-6.000000,0.250000,13.000000
7513,-5.500000,0.250000,13.000000
7514,-5.000000,0.250000,13.000000
7515,-4.500000,0.250000,13.000000
7516,-4.000000,0.250000,13.000000
7517,-3.500000,0.250000,13.000000
7518,-3.000000,0.250000,13.000000
7519,-2.500000,0.250000,13.000000
7520,-2.000000,0.250000,13.000000
7521,-1.500000,0.250000,13.000000
7522,-1.000000,0.250000,13.000000
7523,-0.500000,0.250000,13.000000
7524,0.000000,0.250000,13.000000
7525,0.500000,0.250000,13.000000
7526,1.000000,0.250000,13.000000
7527,1.500000,0.250000,13.000000
7528,2.000000,0.250000,13.000000
7529,2.500000,0.250000,13.000000
7530,3.000000,0.250000,13.000000
7531,3.500000,0.250000,13.000000
7532,4.000000,0.250000,13.000000
7533,4.500000,0.250000,13.000000
7534,5.000000,0.250000,13.000000
7535,5.500000,0.250000,13.000000
7536,6.000000,0.250000,13.000000
7537,6.500000,0.250000,13.000000
7538,7.000000,0.250000,13.000000
7539,7.500000,0.250000,13.000000
7540,8.000000,0.250000,13.000000
7541,8.500000,0.250000,13.000000
7542,9.000000,0.250000,13.000000
7543,9.500000,0.250000,13.000000
7544,10.000000,0.250000,13.000000
7545,-10.000000,0.500000,13.000000
7546,-9.500000,0.500000,13.000000
7547,-9.000000,0.500000,13.000000
7548,-8.500000,0.500000,13.000000
7549,-8.000000,0.500000,13.000000
7550,-7.500000,0.500000,13.000000
7551,-7.000000,0.500000,13.000000
7552,-6.500000,0.500000,13.000000
7553,-6.000000,0.500000,13.000000
7554,-5.500000,0.500000,13.000000
7555,-5.000000,0.500000,13.000000
7556,-4.500000,0.500000,13.000000
7557,-4.000000,0.500000,13.000000
7558,-3.500000,0.500000,13.000000
7559,-3.000000,0.500000,13.000000
7560,-2.500000,0.500000,13.000000
7561,-2.000000,0.500000,13.000000
7562,-1.500000,0.500000,13.000000
7563,-1.000000,0.500000,13.000000
7564,-0.500000,0.500000,13.000000
7565,0.000000,0.500000,13.000000
7566,0.500000,0.500000,13.000000
7567,1.000000,0.500000,13.000000
7568,1.500000,0.500000,13.000000
7569,2.000000,0.500000,13.000000
7570,2.500000,0.500000,13.000000
7571,3.000000,0.500000,13.000000
7572,3.500000,0.500000,13.000000
7573,4.000000,0.500000,13.000000
7574,4.500000,0.500000,13.000000
7575,5.000000,0.500000,13.000000
7576,5.500000,0.500000,13.000000
7577,6.000000,0.500000,13.000000
7578,6.500000,0.500000,13.000000
7579,7.000000,0.500000,13.000000
7580,7.500000,0.500000,13.000000
7581,8.000000,0.500000,13.000000
7582,8.500000,0.500000,13.000000
7583,9.000000,0.500000,13.000000
7584,9.500000,0.500000,13.000000
7585,10.000000,0.500000,13.000000
7586,-10.000000,0.750000,13.000000
7587,-9.500000,0.750000,13.000000
7588,-9.000000,0.750000,13.000000
7589,-8.500000,0.750000,13.000000
7590,-8.000000,0.750000,13.000000
7591,-7.500000,0.750000,13.000000
7592,-7.000000,0.750000,13.000000
7593,-6.500000,0.750000,13.000000
7594,-6.000000,0.750000,13.000000
7595,-5.500000,0.750000,13.000000
7596,-5.000000,0.750000,13.000000
7597,-4.500000,0.750000,13.000000
7598,-4.000000,0.750000,13.000000
7599,-3.500000,0.750000,13.000000
7600,-3.000000,0.750000,13.000000
7601,-2.500000,0.750000,13.000000
7602,-2.000000,0.750000,13.000000
7603,-1.500000,0.750000,13.000000
7604,-1.000000,0.750000,13.000000
7605,-0.500000,0.750000,13.000000
7606,0.000000,0.750000,13.000000
7607,0.500000,0.750000,13.000000
7608,1.000000,0.750000,13.000000
7609,1.500000,0.750000,13.000000
7610,2.000000,0.750000,13.000000
7611,2.500000,0.750000,13.000000
7612,3.000000,0.750000,13.000000
7613,3.500000,0.750000,13.000000
7614,4.000000,0.750000,13.000000
7615,4.500000,0.750000,13.000000
7616,5.000000,0.750000,13.000000
7617,5.500000,0.750000,13.000000
7618,6.000000,0.750000,13.000000
7619,6.500000,0.750000,13.000000
7620,7.000000,0.750000,13.000000
7621,7.500000,0.750000,13.000000
7622,8.000000,0.750000,13.000000
7623,8.500000,0.750000,13.000000
7624,9.000000,0.750000,13.000000
7625,9.500000,0.750000,13.000000
7626,10.000000,0.750000,13.000000
7627,-10.000000,1.000000,13.000000
7628,-9.500000,1.000000,13.000000
7629,-9.000000,1.000000,13.000000
7630,-8.500000,1.000000,13.000000
7631,-8.000000,1.000000,13.000000
7632,-7.500000,1.000000,13.000000
7633,-7.000000,1.000000,13.000000
7634,-6.500000,1.000000,13.000000
7635,-6.000000,1.000000,13.000000
7636,-5.500000,1.000000,13.000000
7637,-5.000000,1.000000,13.000000
7638,-4.500000,1.000000,13.000000
7639,-4.000000,1.000000,13.000000
7640,-3.500000,1.000000,13.000000
7641,-3.000000,1.000000,13.000000
7642,-2.500000,1.000000,13.000000
7643,-2.000000,1.000000,13.000000
7644,-1.500000,1.000000,13.000000
7645,-1.000000,1.000000,13.000000
7646,-0.500000,1.000000,13.000000
7647,0.000000,1.000000,13.000000
7648,0.500000,1.000000,13.000000
7649,1.000000,1.000000,13.000000
7650,1.500000,1.000000,13.000000
7651,2.000000,1.000000,13.000000
7652,2.500000,1.000000,13.000000
7653,3.000000,1.000000,13.000000
7654,3.500000,1.000000,13.000000
7655,4.000000,1.000000,13.000000
7656,4.500000,1.000000,13.000000
7657,5.000000,1.000000,13.000000
7658,5.500000,1.000000,13.000000
7659,6.000000,1.000000,13.000000
7660,6.500000,1.000000,13.000000
7661,7.000000,1.000000,13.000000
7662,7.500000,1.000000,13.000000
7663,8.000000,1.000000,13.000000
7664,8.500000,1.000000,13.000000
7665,9.000000,1.000000,13.000000
7666,9.500000,1.000000,13.000000
7667,10.000000,1.000000,13.000000
7668,-10.000000,1.250000,13.000000
7669,-9.500000,1.250000,13.000000
7670,-9.000000,1.250000,13.000000
7671,-8.500000,1.250000,13.000000
7672,-8.000000,1.250000,13.000000
7673,-7.500000,1.250000,13.000000
7674,-7.000000,1.250000,13.000000
7675,-6.500000,1.250000,13.000000
7676,-6.000000,1.250000,13.000000
7677,-5.500000,1.250000,13.000000
7678,-5.000000,1.250000,13.000000
7679,-4.500000,1.250000,13.000000
7680,-4.000000,1.250000,13.000000
7681,-3.500000,1.250000,13.000000
7682,-3.000000,1.250000,13.000000
7683,-2.500000,1.250000,13.000000
7684,-2.000000,1.250000,13.000000
7685,-1.500000,1.250000,13.000000
7686,-1.000000,1.250000,13.000000
7687,-0.500000,1.250000,13.000000
7688,0.000000,1.250000,13.000000
7689,0.500000,1.250000,13.000000
7690,1.000000,1.250000,13.000000
7691,1.500000,1.250000,13.000000
7692,2.000000,1.250000,13.000000
7693,2.500000,1.250000,13.000000
7694,3.000000,1.250000,13.000000
7695,3.500000,1.250000,13.000000
7696,4.000000,1.250000,13.000000
7697,4.500000,1.250000,13.000000
7698,5.000000,1.250000,13.000000
7699,5.500000,1.250000,13.000000
7700,6.000000,1.250000,13.000000
7701,6.500000,1.250000,13.000000
7702,7.000000,1.250000,13.000000
7703,7.500000,1.250000,13.000000
7704,8.000000,1.250000,13.000000
7705,8.500000,1.250000,13.000000
7706,9.000000,1.250000,13.000000
7707,9.500000,1.250000,13.000000
7708,10.000000,1.250000,13.000000
7709,-10.000000,1.500000,13.000000
7710,-9.500000,1.500000,13.000000
7711,-9.000000,1.500000,13.000000
7712,-8.500000,1.500000,13.000000
7713,-8.000000,1.500000,13.000000
7714,-7.500000,1.500000,13.000000
7715,-7.000000,1.500000,13.000000
7716,-6.500000,1.500000,13.000000
7717,-6.000000,1.500000,13.000000
7718,-5.500000,1.500000,13.000000
7719,-5.000000,1.500000,13.000000
7720,-4.500000,1.500000,13.000000
7721,-4.000000,1.500000,13.000000
7722,-3.500000,1.500000,13.000000
7723,-3.000000,1.500000,13.000000
7724,-2.500000,1.500000,13.000000
7725,-2.000000,1.500000,13.000000
7726,-1.500000,1.500000,13.000000
7727,-1.000000,1.500000,13.000000
7728,-0.500000,1.500000,13.000000
7729,0.000000,1.500000,13.000000
7730,0.500000,1.500000,13.000000
7731,1.000000,1.500000,13.000000
7732,1.500000,1.500000,13.000000
7733,2.000000,1.500000,13.000000
7734,2.500000,1.500000,13.000000
7735,3.000000,1.500000,13.000000
7736,3.500000,1.500000,13.000000
7737,4.000000,1.500000,13.000000
7738,4.500000,1.500000,13.000000
7739,5.000000,1.500000,13.000000
7740,5.500000,1.500000,13.000000
7741,6.000000,1.500000,13.000000
7742,6.500000,1.500000,13.000000
7743,7.000000,1.500000,13.000000
7744,7.500000,1.500000,13.000000
7745,8.000000,1.500000,13.000000
7746,8.500000,1.500000,13.000000
7747,9.000000,1.500000,13.000000
7748,9.500000,1.500000,13.000000
7749,10.000000,1.500000,13.000000
7750,-10.000000,0.000000,13.500000
7751,-9.500000,0.000000,13.500000
7752,-9.000000,0.000000,13.500000
7753,-8.500000,0.000000,13.500000
7754,-8.000000,0.000000,13.500000
7755,-7.500000,0.000000,13.500000
7756,-7.000000,0.000000,13.500000
7757,-6.500000,0.000000,13.500000
7758,-6.000000,0.000000,13.500000
7759,-5.500000,0.000000,13.500000
7760,-5.000000,0.000000,13.500000
7761,-4.500000,0.000000,13.500000
7762,-4.000000,0.000000,13.500000
7763,-3.500000,0.000000,13.500000
7764,-3.000000,0.000000,13.500000
7765,-2.500000,0.000000,13.500000
7766,-2.000000,0.000000,13.500000
7767,-1.500000,0.000000,13.500000
7768,-1.000000,0.000000,13.500000
7769,-0.500000,0.000000,13.500000
7770,0.000000,0.000000,13.500000
7771,0.500000,0.000000,13.500000
7772,1.000000,0.000000,13.500000
7773,1.500000,0.000000,13.500000
7774,2.000000,0.000000,13.500000
7775,2.500000,0.000000,13.500000
7776,3.000000,0.000000,13.500000
7777,3.500000,0.000000,13.500000
7778,4.000000,0.000000,13.500000
7779,4.500000,0.000000,13.500000
7780,5.000000,0.000000,13.500000
7781,5.500000,0.000000,13.500000
7782,6.000000,0.000000,13.500000
7783,6.500000,0.000000,13.500000
7784,7.000000,0.000000,13.500000
7785,7.500000,0.000000,13.500000
7786,8.000000,0.000000,13.500000
7787,8.500000,0.000000,13.500000
7788,9.000000,0.000000,13.500000
7789,9.500000,0.000000,13.500000
7790,10.000000,0.000000,13.500000
7791,-10.000000,0.250000,13.500000
7792,-9.500000,0.250000,13.500000
7793,-9.000000,0.250000,13.500000
7794,-8.500000,0.250000,13.500000
7795,-8.000000,0.250000,13.500000
7796,-7.500000,0.250000,13.500000
7797,-7.000000,0.250000,13.500000
7798,-6.500000,0.250000,13.500000
7799,-6.000000,0.250000,13.500000
7800,-5.500000,0.250000,13.500000
7801,-5.000000,0.250000,13.500000
7802,-4.500000,0.250000,13.500000
7803,-4.000000,0.250000,13.500000
7804,-3.500000,0.250000,13.500000
7805,-3.000000,0.250000,13.500000
7806,-2.500000,0.250000,13.500000
7807,-2.000000,0.250000,13.500000
7808,-1.500000,0.250000,13.500000
7809,-1.000000,0.250000,13.500000
7810,-0.500000,0.250000,13.500000
7811,0.000000,0.250000,13.500000
7812,0.500000,0.250000,13.500000
7813,1.000000,0.250000,13.500000
7814,1.500000,0.250000,13.500000
7815,2.000000,0.250000,13.500000
7816,2.500000,0.250000,13.500000
7817,3.000000,0.250000,13.500000
7818,3.500000,0.250000,13.500000
7819,4.000000,0.250000,13.500000
7820,4.500000,0.250000,13.500000
7821,5.000000,0.250000,13.500000
7822,5.500000,0.250000,13.500000
7823,6.000000,0.250000,13.500000
7824,6.500000,0.250000,13.500000
7825,7.000000,0.250000,13.500000
7826,7.500000,0.250000,13.500000
7827,8.000000,0.250000,13.500000
7828,8.500000,0.250000,13.500000
7829,9.000000,0.250000,13.500000
7830,9.500000,0.250000,13.500000
7831,10.000000,0.250000,13.500000
7832,-10.000000,0.500000,13.500000
7833,-9.500000,0.500000,13.500000
7834,-9.000000,0.500000,13.500000
7835,-8.500000,0.500000,13.500000
7836,-8.000000,0.500000,13.500000
7837,-7.500000,0.500000,13.500000
7838,-7.000000,0.500000,13.500000
7839,-6.500000,0.500000,13.500000
7840,-6.000000,0.500000,13.500000
7841,-5.500000,0.500000,13.500000
7842,-5.000000,0.500000,13.500000
7843,-4.500000,0.500000,13.500000
7844,-4.000000,0.500000,13.500000
7845,-3.500000,0.500000,13.500000
7846,-3.000000,0.500000,13.500000
7847,-2.500000,0.500000,13.500000
7848,-2.000000,0.500000,13.500000
7849,-1.500000,0.500000,13.500000
7850,-1.000000,0.500000,13.500000
7851,-0.500000,0.500000,13.500000
7852,0.000000,0.500000,13.500000
7853,0.500000,0.500000,13.500000
7854,1.000000,0.500000,13.500000
7855,1.500000,0.500000,13.500000
7856,2.000000,0.500000,13.500000
7857,2.500000,0.500000,13.500000
7858,3.000000,0.500000,13.500000
7859,3.500000,0.500000,13.500000
7860,4.000000,0.500000,13.500000
7861,4.500000,0.500000,13.500000
7862,5.000000,0.500000,13.500000
7863,5.500000,0.500000,13.500000
7864,6.000000,0.500000,13.500000
7865,6.500000,0.500000,13.500000
7866,7.000000,0.500000,13.500000
7867,7.500000,0.500000,13.500000
7868,8.000000,0.500000,13.500000
7869,8.500000,0.500000,13.500000
7870,9.000000,0.500000,13.500000
7871,9.500000,0.500000,13.500000
7872,10.000000,0.500000,13.500000
7873,-10.000000,0.750000,13.500000
7874,-9.500000,0.750000,13.500000
7875,-9.000000,0.750000,13.500000
7876,-8.500000,0.750000,13.500000
7877,-8.000000,0.750000,13.500000
7878,-7.500000,0.750000,13.500000
7879,-7.000000,0.750000,13.500000
7880,-6.500000,0.750000,13.500000
7881,-6.000000,0.750000,13.500000
7882,-5.500000,0.750000,13.500000
7883,-5.000000,0.750000,13.500000
7884,-4.500000,0.750000,13.500000
7885,-4.000000,0.750000,13.500000
7886,-3.500000,0.750000,13.500000
7887,-3.000000,0.750000,13.500000
7888,-2.500000,0.750000,13.500000
7889,-2.000000,0.750000,13.500000
7890,-1.500000,0.750000,13.500000
7891,-1.000000,0.750000,13.500000
7892,-0.500000,0.750000,13.500000
7893,0.000000,0.750000,13.500000
7894,0.500000,0.750000,13.500000
7895,1.000000,0.750000,13.500000
7896,1.500000,0.750000,13.500000
7897,2.000000,0.750000,13.500000
7898,2.500000,0.750000,13.500000
7899,3.000000,0.750000,13.500000
7900,3.500000,0.750000,13.500000
7901,4.000000,0.750000,13.500000
7902,4.500000,0.750000,13.500000
7903,5.000000,0.750000,13.500000
7904,5.500000,0.750000,13.500000
7905,6.000000,0.750000,13.500000
7906,6.500000,0.750000,13.500000
7907,7.000000,0.750000,13.500000
7908,7.500000,0.750000,13.500000
7909,8.000000,0.750000,13.500000
7910,8.500000,0.750000,13.500000
7911,9.000000,0.750000,13.500000
7912,9.500000,0.750000,13.500000
7913,10.000000,0.750000,13.500000
7914,-10.000000,1.000000,13.500000
7915,-9.500000,1.000000,13.500000
7916,-9.000000,1.000000,13.500000
7917,-8.500000,1.000000,13.500000
7918,-8.000000,1.000000,13.500000
7919,-7.500000,1.000000,13.500000
7920,-7.000000,1.000000,13.500000
7921,-6.500000,1.000000,13.500000
7922,-6.000000,1.000000,13.500000
7923,-5.500000,1.000000,13.500000
7924,-5.000000,1.000000,13.500000
7925,-4.500000,1.000000,13.500000
7926,-4.000000,1.000000,13.500000
7927,-3.500000,1.000000,13.500000
7928,-3.000000,1.000000,13.500000
7929,-2.500000,1.000000,13.500000
7930,-2.000000,1.000000,13.500000
7931,-1.500000,1.000000,13.500000
7932,-1.000000,1.000000,13.500000
7933,-0.500000,1.000000,13.500000
7934,0.000000,1.000000,13.500000
7935,0.500000,1.000000,13.500000
7936,1.000000,1.000000,13.500000
7937,1.500000,1.000000,13.500000
7938,2.000000,1.000000,13.500000
7939,2.500000,1.000000,13.500000
7940,3.000000,1.000000,13.500000
7941,3.500000,1.000000,13.500000
7942,4.000000,1.000000,13.500000
7943,4.500000,1.000000,13.500000
7944,5.000000,1.000000,13.500000
7945,5.500000,1.000000,13.500000
7946,6.000000,1.000000,13.500000
7947,6.500000,1.000000,13.500000
7948,7.000000,1.000000,13.500000
7949,7.500000,1.000000,13.500000
7950,8.000000,1.000000,13.500000
7951,8.500000,1.000000,13.500000
7952,9.000000,1.000000,13.500000
7953,9.500000,1.000000,13.500000
7954,10.000000,1.000000,13.500000
7955,-10.000000,1.250000,13.500000
7956,-9.500000,1.250000,13.500000
7957,-9.000000,1.250000,13.500000
7958,-8.500000,1.250000,13.500000
7959,-8.000000,1.250000,13.500000
7960,-7.500000,1.250000,13.500000
7961,-7.000000,1.250000,13.500000
7962,-6.500000,1.250000,13.500000
7963,-6.000000,1.250000,13.500000
7964,-5.500000,1.250000,13.500000
7965,-5.000000,1.250000,13.500000
7966,-4.500000,1.250000,13.500000
7967,-4.000000,1.250000,13.500000
7968,-3.500000,1.250000,13.500000
7969,-3.000000,1.250000,13.500000
7970,-2.500000,1.250000,13.500000
7971,-2.000000,1.250000,13.500000
7972,-1.500000,1.250000,13.500000
7973,-1.000000,1.250000,13.500000
7974,-0.500000,1.250000,13.500000
7975,0.000000,1.250000,13.500000
7976,0.500000,1.250000,13.500000
7977,1.000000,1.250000,13.500000
7978,1.500000,1.250000,13.500000
7979,2.000000,1.250000,13.500000
7980,2.500000,1.250000,13.500000
7981,3.000000,1.250000,13.500000
7982,3.500000,1.250000,13.500000
7983,4.000000,1.250000,13.500000
7984,4.500000,1.250000,13.500000
7985,5.000000,1.250000,13.500000
7986,5.500000,1.250000,13.500000
7987,6.000000,1.250000,13.500000
7988,6.500000,1.250000,13.500000
7989,7.000000,1.250000,13.500000
7990,7.500000,1.250000,13.500000
7991,8.000000,1.250000,13.500000
7992,8.500000,1.250000,13.500000
7993,9.000000,1.250000,13.500000
7994,9.500000,1.250000,13.500000
7995,10.000000,1.250000,13.500000
7996,-10.000000,1.500000,13.500000
7997,-9.500000,1.500000,13.500000
7998,-9.000000,1.500000,13.500000
7999,-8.500000,1.500000,13.500000
8000,-8.000000,1.500000,13.500000
8001,-7.500000,1.500000,13.500000
8002,-7.000000,1.500000,13.500000
8003,-6.500000,1.500000,13.500000
8004,-6.000000,1.500000,13.500000
8005,-5.500000,1.500000,13.500000
8006,-5.000000,1.500000,13.500000
8007,-4.500000,1.500000,13.500000
8008,-4.000000,1.500000,13.500000
8009,-3.500000,1.500000,13.500000
8010,-3.000000,1.500000,13.500000
8011,-2.500000,1.500000,13.500000
8012,-2.000000,1.500000,13.500000
8013,-1.500000,1.500000,13.500000
8014,-1.000000,1.500000,13.500000
8015,-0.500000,1.500000,13.500000
8016,0.000000,1.500000,13.500000
8017,0.500000,1.500000,13.500000
8018,1.000000,1.500000,13.500000
8019,1.500000,1.500000,13.500000
8020,2.000000,1.500000,13.500000
8021,2.500000,1.500000,13.500000
8022,3.000000,1.500000,13.500000
8023,3.500000,1.500000,13.500000
8024,4.000000,1.500000,13.500000
8025,4.500000,1.500000,13.500000
8026,5.000000,1.500000,13.500000
8027,5.500000,1.500000,13.500000
8028,6.000000,1.500000,13.500000
8029,6.500000,1.500000,13.500000
8030,7.000000,1.500000,13.500000
8031,7.500000,1.500000,13.500000
8032,8.000000,1.500000,13.500000
8033,8.500000,1.500000,13.500000
8034,9.000000,1.500000,13.500000
8035,9.500000,1.500000,13.500000
8036,10.000000,1.500000,13.500000
8037,-10.000000,0.000000,14.000000
8038,-9.500000,0.000000,14.000000
8039,-9.000000,0.000000,14.000000
8040,-8.500000,0.000000,14.000000
8041,-8.000000,0.000000,14.000000
8042,-7.500000,0.000000,14.000000
8043,-7.000000,0.000000,14.000000
8044,-6.500000,0.000000,14.000000
8045,-6.000000,0.000000,14.000000
8046,-5.500000,0.000000,14.000000
8047,-5.000000,0.000000,14.000000
8048,-4.500000,0.000000,14.000000
8049,-4.000000,0.000000,14.000000
8050,-3.500000,0.000000,14.000000
8051,-3.000000,0.000000,14.000000
8052,-2.500000,0.000000,14.000000
8053,-2.000000,0.000000,14.000000
8054,-1.500000,0.000000,14.000000
8055,-1.000000,0.000000,14.000000
8056,-0.500000,0.000000,14.000000
8057,0.000000,0.000000,14.000000
8058,0.500000,0.000000,14.000000
8059,1.000000,0.000000,14.000000
8060,1.500000,0.000000,14.000000
8061,2.000000,0.000000,14.000000
8062,2.500000,0.000000,14.000000
8063,3.000000,0.000000,14.000000
8064,3.500000,0.000000,14.000000
8065,4.000000,0.000000,14.000000
8066,4.500000,0.000000,14.000000
8067,5.000000,0.000000,14.000000
8068,5.500000,0.000000,14.000000
8069,6.000000,0.000000,14.000000
8070,6.500000,0.000000,14.000000
8071,7.000000,0.000000,14.000000
8072,7.500000,0.000000,14.000000
8073,8.000000,0.000000,14.000000
8074,8.500000,0.000000,14.000000
8075,9.000000,0.000000,14.000000
8076,9.500000,0.000000,14.000000
8077,10.000000,0.000000,14.000000
8078,-10.000000,0.250000,14.000000
8079,-9.500000,0.250000,14.000000
8080,-9.000000,0.250000,14.000000
8081,-8.500000,0.250000,14.000000
8082,-8.000000,0.250000,14.000000
8083,-7.500000,0.250000,14.000000
8084,-7.000000,0.250000,14.000000
8085,-6.500000,0.250000,14.000000
8086,-6.000000,0.250000,14.000000
8087,-5.500000,0.250000,14.000000
8088,-5.000000,0.250000,14.000000
8089,-4.500000,0.250000,14.000000
8090,-4.000000,0.250000,14.000000
8091,-3.500000,0.250000,14.000000
8092,-3.000000,0.250000,14.000000
8093,-2.500000,0.250000,14.000000
8094,-2.000000,0.250000,14.000000
8095,-1.500000,0.250000,14.000000
8096,-1.000000,0.250000,14.000000
8097,-0.500000,0.250000,14.000000
8098,0.000000,0.250000,14.000000
8099,0.500000,0.250000,14.000000
8100,1.000000,0.250000,14.000000
8101,1.500000,0.250000,14.000000
8102,2.000000,0.250000,14.000000
8103,2.500000,0.250000,14.000000
8104,3.000000,0.250000,14.000000
8105,3.500000,0.250000,14.000000
8106,4.000000,0.250000,14.000000
8107,4.500000,0.250000,14.000000
8108,5.000000,0.250000,14.000000
8109,5.500000,0.250000,14.000000
8110,6.000000,0.250000,14.000000
8111,6.500000,0.250000,14.000000
8112,7.000000,0.250000,14.000000
8113,7.500000,0.250000,14.000000
8114,8.000000,0.250000,14.000000
8115,8.500000,0.250000,14.000000
8116,9.000000,0.250000,14.000000
8117,9.500000,0.250000,14.000000
8118,10.000000,0.250000,14.000000
8119,-10.000000,0.500000,14.000000
8120,-9.500000,0.500000,14.000000
8121,-9.000000,0.500000,14.000000
8122,-8.500000,0.500000,14.000000
8123,-8.000000,0.500000,14.000000
8124,-7.500000,0.500000,14.000000
8125,-7.000000,0.500000,14.000000
8126,-6.500000,0.500000,14.000000
8127,-6.000000,0.500000,14.000000
8128,-5.500000,0.500000,14.000000
8129,-5.000000,0.500000,14.000000
8130,-4.500000,0.500000,14.000000
8131,-4.000000,0.500000,14.000000
8132,-3.500000,0.500000,14.000000
8133,-3.000000,0.500000,14.000000
8134,-2.500000,0.500000,14.000000
8135,-2.000000,0.500000,14.000000
8136,-1.500000,0.500000,14.000000
8137,-1.000000,0.500000,14.000000
8138,-0.500000,0.500000,14.000000
8139,0.000000,0.500000,14.000000
8140,0.500000,0.500000,14.000000
8141,1.000000,0.500000,14.000000
8142,1.500000,0.500000,14.000000
8143,2.000000,0.500000,14.000000
8144,2.500000,0.500000,14.000000
8145,3.000000,0.500000,14.000000
8146,3.500000,0.500000,14.000000
8147,4.000000,0.500000,14.000000
8148,4.500000,0.500000,14.000000
8149,5.000000,0.500000,14.000000
8150,5.500000,0.500000,14.000000
8151,6.000000,0.500000,14.000000
8152,6.500000,0.500000,14.000000
8153,7.000000,0.500000,14.000000
8154,7.500000,0.500000,14.000000
8155,8.000000,0.500000,14.000000
8156,8.500000,0.500000,14.000000
8157,9.000000,0.500000,14.000000
8158,9.500000,0.500000,14.000000
8159,10.000000,0.500000,14.000000
8160,-10.000000,0.750000,14.000000
8161,-9.500000,0.750000,14.000000
8162,-9.000000,0.750000,14.000000
8163,-8.500000,0.750000,14.000000
8164,-8.000000,0.750000,14.000000
8165,-7.500000,0.750000,14.000000
8166,-7.000000,0.750000,14.000000
8167,-6.500000,0.750000,14.000000
8168,-6.000000,0.750000,14.000000
8169,-5.500000,0.750000,14.000000
8170,-5.000000,0.750000,14.000000
8171,-4.500000,0.750000,14.000000
8172,-4.000000,0.750000,14.000000
8173,-3.500000,0.750000,14.000000
8174,-3.000000,0.750000,14.000000
8175,-2.500000,0.750000,14.000000
8176,-2.000000,0.750000,14.000000
8177,-1.500000,0.750000,14.000000
8178,-1.000000,0.750000,14.000000
8179,-0.500000,0.750000,14.000000
8180,0.000000,0.750000,14.000000
8181,0.500000,0.750000,14.000000
8182,1.000000,0.750000,14.000000
8183,1.500000,0.750000,14.000000
8184,2.000000,0.750000,14.000000
8185,2.500000,0.750000,14.000000
8186,3.000000,0.750000,14.000000
8187,3.500000,0.750000,14.000000
8188,4.000000,0.750000,14.000000
8189,4.500000,0.750000,14.000000
8190,5.000000,0.750000,14.000000
8191,5.500000,0.750000,14.000000
8192,6.000000,0.750000,14.000000
8193,6.500000,0.750000,14.000000
8194,7.000000,0.750000,14.000000
8195,7.500000,0.750000,14.000000
8196,8.000000,0.750000,14.000000
8197,8.500000,0.750000,14.000000
8198,9.000000,0.750000,14.000000
8199,9.500000,0.750000,14.000000
8200,10.000000,0.750000,14.000000
8201,-10.000000,1.000000,14.000000
8202,-9.500000,1.000000,14.000000
8203,-9.000000,1.000000,14.000000
8204,-8.500000,1.000000,14.000000
8205,-8.000000,1.000000,14.000000
8206,-7.500000,1.000000,14.000000
8207,-7.000000,1.000000,14.000000
8208,-6.500000,1.000000,14.000000
8209,-6.000000,1.000000,14.000000
8210,-5.500000,1.000000,14.000000
8211,-5.000000,1.000000,14.000000
8212,-4.500000,1.000000,14.000000
8213,-4.000000,1.000000,14.000000
8214,-3.500000,1.000000,14.000000
8215,-3.000000,1.000000,14.000000
8216,-2.500000,1.000000,14.000000
8217,-2.000000,1.000000,14.000000
8218,-1.500000,1.000000,14.000000
8219,-1.000000,1.000000,14.000000
8220,-0.500000,1.000000,14.000000
8221,0.000000,1.000000,14.000000
8222,0.500000,1.000000,14.000000
8223,1.000000,1.000000,14.000000
8224,1.500000,1.000000,14.000000
8225,2.000000,1.000000,14.000000
8226,2.500000,1.000000,14.000000
8227,3.000000,1.000000,14.000000
8228,3.500000,1.000000,14.000000
8229,4.000000,1.000000,14.000000
8230,4.500000,1.000000,14.000000
8231,5.000000,1.000000,14.000000
8232,5.500000,1.000000,14.000000
8233,6.000000,1.000000,14.000000
8234,6.500000,1.000000,14.000000
8235,7.000000,1.000000,14.000000
8236,7.500000,1.000000,14.000000
8237,8.000000,1.000000,14.000000
8238,8.500000,1.000000,14.000000
8239,9.000000,1.000000,14.000000
8240,9.500000,1.000000,14.000000
8241,10.000000,1.000000,14.000000
8242,-10.000000,1.250000,14.000000
8243,-9.500000,1.250000,14.000000
8244,-9.000000,1.250000,14.000000
8245,-8.500000,1.250000,14.000000
8246,-8.000000,1.250000,14.000000
8247,-7.500000,1.250000,14.000000
8248,-7.000000,1.250000,14.000000
8249,-6.500000,1.250000,14.000000
8250,-6.000000,1.250000,14.000000
8251,-5.500000,1.250000,14.000000
8252,-5.000000,1.250000,14.000000
8253,-4.500000,1.250000,14.000000
8254,-4.000000,1.250000,14.000000
8255,-3.500000,1.250000,14.000000
8256,-3.000000,1.250000,14.000000
8257,-2.500000,1.250000,14.000000
8258,-2.000000,1.250000,14.000000
8259,-1.500000,1.250000,14.000000
8260,-1.000000,1.250000,14.000000
8261,-0.500000,1.250000,14.000000
8262,0.000000,1.250000,14.000000
8263,0.500000,1.250000,14.000000
8264,1.000000,1.250000,14.000000
8265,1.500000,1.250000,14.000000
8266,2.000000,1.250000,14.000000
8267,2.500000,1.250000,14.000000
8268,3.000000,1.250000,14.000000
8269,3.500000,1.250000,14.000000
8270,4.000000,1.250000,14.000000
8271,4.500000,1.250000,14.000000
8272,5.000000,1.250000,14.000000
8273,5.500000,1.250000,14.000000
8274,6.000000,1.250000,14.000000
8275,6.500000,1.250000,14.000000
8276,7.000000,1.250000,14.000000
8277,7.500000,1.250000,14.000000
8278,8.000000,1.250000,14.000000
8279,8.500000,1.250000,14.000000
8280,9.000000,1.250000,14.000000
8281,9.500000,1.250000,14.000000
8282,10.000000,1.250000,14.000000
8283,-10.000000,1.500000,14.000000
8284,-9.500000,1.500000,14.000000
8285,-9.000000,1.500000,14.000000
8286,-8.500000,1.500000,14.000000
8287,-8.000000,1.500000,14.000000
8288,-7.500000,1.500000,14.000000
8289,-7.000000,1.500000,14.000000
8290,-6.500000,1.500000,14.000000
8291,-6.000000,1.500000,14.000000
8292,-5.500000,1.500000,14.000000
8293,-5.000000,1.500000,14.000000
8294,-4.500000,1.500000,14.000000
8295,-4.000000,1.500000,14.000000
8296,-3.500000,1.500000,14.000000
8297,-3.000000,1.500000,14.000000
8298,-2.500000,1.500000,14.000000
8299,-2.000000,1.500000,14.000000
8300,-1.500000,1.500000,14.000000
8301,-1.000000,1.500000,14.000000
8302,-0.500000,1.500000,14.000000
8303,0.000000,1.500000,14.000000
8304,0.500000,1.500000,14.000000
8305,1.000000,1.500000,14.000000
8306,1.500000,1.500000,14.000000
8307,2.000000,1.500000,14.000000
8308,2.500000,1.500000,14.000000
8309,3.000000,1.500000,14.000000
8310,3.500000,1.500000,14.000000
8311,4.000000,1.500000,14.000000
8312,4.500000,1.500000,14.000000
8313,5.000000,1.500000,14.000000
8314,5.500000,1.500000,14.000000
8315,6.000000,1.500000,14.000000
8316,6.500000,1.500000,14.000000
8317,7.000000,1.500000,14.000000
8318,7.500000,1.500000,14.000000
8319,8.000000,1.500000,14.000000
8320,8.500000,1.500000,14.000000
8321,9.000000,1.500000,14.000000
8322,9.500000,1.500000,14.000000
8323,10.000000,1.500000,14.000000
8324,-10.000000,0.000000,14.500000
8325,-9.500000,0.000000,14.500000
8326,-9.000000,0.000000,14.500000
8327,-8.500000,0.000000,14.500000
8328,-8.000000,0.000000,14.500000
8329,-7.500000,0.000000,14.500000
8330,-7.000000,0.000000,14.500000
8331,-6.500000,0.000000,14.500000
8332,-6.000000,0.000000,14.500000
8333,-5.500000,0.000000,14.500000
8334,-5.000000,0.000000,14.500000
8335,-4.500000,0.000000,14.500000
8336,-4.000000,0.000000,14.500000
8337,-3.500000,0.000000,14.500000
8338,-3.000000,0.000000,14.500000
8339,-2.500000,0.000000,14.500000
8340,-2.000000,0.000000,14.500000
8341,-1.500000,0.000000,14.500000
8342,-1.000000,0.000000,14.500000
8343,-0.500000,0.000000,14.500000
8344,0.000000,0.000000,14.500000
8345,0.500000,0.000000,14.500000
8346,1.000000,0.000000,14.500000
8347,1.500000,0.000000,14.500000
8348,2.000000,0.000000,14.500000
8349,2.500000,0.000000,14.500000
8350,3.000000,0.000000,14.500000
8351,3.500000,0.000000,14.500000
8352,4.000000,0.000000,14.500000
8353,4.500000,0.000000,14.500000
8354,5.000000,0.000000,14.500000
8355,5.500000,0.000000,14.500000
8356,6.000000,0.000000,14.500000
8357,6.500000,0.000000,14.500000
8358,7.000000,0.000000,14.500000
8359,7.500000,0.000000,14.500000
8360,8.000000,0.000000,14.500000
8361,8.500000,0.000000,14.500000
8362,9.000000,0.000000,14.500000
8363,9.500000,0.000000,14.500000
8364,10.000000,0.000000,14.500000
8365,-10.000000,0.250000,14.500000
8366,-9.500000,0.250000,14.500000
8367,-9.000000,0.250000,14.500000
8368,-8.500000,0.250000,14.500000
8369,-8.000000,0.250000,14.500000
8370,-7.500000,0.250000,14.500000
8371,-7.000000,0.250000,14.500000
8372,-6.500000,0.250000,14.500000
8373,-6.000000,0.250000,14.500000
8374,-5.500000,0.250000,14.500000
8375,-5.000000,0.250000,14.500000
8376,-4.500000,0.250000,14.500000
8377,-4.000000,0.250000,14.500000
8378,-3.500000,0.250000,14.500000
8379,-3.000000,0.250000,14.500000
8380,-2.500000,0.250000,14.500000
8381,-2.000000,0.250000,14.500000
8382,-1.500000,0.250000,14.500000
8383,-1.000000,0.250000,14.500000
8384,-0.500000,0.250000,14.500000
8385,0.000000,0.250000,14.500000
8386,0.500000,0.250000,14.500000
8387,1.000000,0.250000,14.500000
8388,1.500000,0.250000,14.500000
8389,2.000000,0.250000,14.500000
8390,2.500000,0.250000,14.500000
8391,3.000000,0.250000,14.500000
8392,3.500000,0.250000,14.500000
8393,4.000000,0.250000,14.500000
8394,4.500000,0.250000,14.500000
8395,5.000000,0.250000,14.500000
8396,5.500000,0.250000,14.500000
8397,6.000000,0.250000,14.500000
8398,6.500000,0.250000,14.500000
8399,7.000000,0.250000,14.500000
8400,7.500000,0.250000,14.500000
8401,8.000000,0.250000,14.500000
8402,8.500000,0.250000,14.500000
8403,9.000000,0.250000,14.500000
8404,9.500000,0.250000,14.500000
8405,10.000000,0.250000,14.500000
8406,-10.000000,0.500000,14.500000
8407,-9.500000,0.500000,14.500000
8408,-9.000000,0.500000,14.500000
8409,-8.500000,0.500000,14.500000
8410,-8.000000,0.500000,14.500000
8411,-7.500000,0.500000,14.500000
8412,-7.000000,0.500000,14.500000
8413,-6.500000,0.500000,14.500000
8414,-6.000000,0.500000,14.500000
8415,-5.500000,0.500000,14.500000
8416,-5.000000,0.500000,14.500000
8417,-4.500000,0.500000,14.500000
8418,-4.000000,0.500000,14.500000
8419,-3.500000,0.500000,14.500000
8420,-3.000000,0.500000,14.500000
8421,-2.500000,0.500000,14.500000
8422,-2.000000,0.500000,14.500000
8423,-1.500000,0.500000,14.500000
8424,-1.000000,0.500000,14.500000
8425,-0.500000,0.500000,14.500000
8426,0.000000,0.500000,14.500000
8427,0.500000,0.500000,14.500000
8428,1.000000,0.500000,14.500000
8429,1.500000,0.500000,14.500000
8430,2.000000,0.500000,14.500000
8431,2.500000,0.500000,14.500000
8432,3.000000,0.500000,14.500000
8433,3.500000,0.500000,14.500000
8434,4.000000,0.500000,14.500000
8435,4.500000,0.500000,14.500000
8436,5.000000,0.500000,14.500000
8437,5.500000,0.500000,14.500000
8438,6.000000,0.500000,14.500000
8439,6.500000,0.500000,14.500000
8440,7.000000,0.500000,14.500000
8441,7.500000,0.500000,14.500000
8442,8.000000,0.500000,14.500000
8443,8.500000,0.500000,14.500000
8444,9.000000,0.500000,14.500000
8445,9.500000,0.500000,14.500000
8446,10.000000,0.500000,14.500000
8447,-10.000000,0.750000,14.500000
8448,-9.500000,0.750000,14.500000
8449,-9.000000,0.750000,14.500000
8450,-8.500000,0.750000,14.500000
8451,-8.000000,0.750000,14.500000
8452,-7.500000,0.750000,14.500000
8453,-7.000000,0.750000,14.500000
8454,-6.500000,0.750000,14.500000
8455,-6.000000,0.750000,14.500000
8456,-5.500000,0.750000,14.500000
8457,-5.000000,0.750000,14.500000
8458,-4.500000,0.750000,14.500000
8459,-4.000000,0.750000,14.500000
8460,-3.500000,0.750000,14.500000
8461,-3.000000,0.750000,14.500000
8462,-2.500000,0.750000,14.500000
8463,-2.000000,0.750000,14.500000
8464,-1.500000,0.750000,14.500000
8465,-1.000000,0.750000,14.500000
8466,-0.500000,0.750000,14.500000
8467,0.000000,0.750000,14.500000
8468,0.500000,0.750000,14.500000
8469,1.000000,0.750000,14.500000
8470,1.500000,0.750000,14.500000
8471,2.000000,0.750000,14.500000
8472,2.500000,0.750000,14.500000
8473,3.000000,0.750000,14.500000
8474,3.500000,0.750000,14.500000
8475,4.000000,0.750000,14.500000
8476,4.500000,0.750000,14.500000
8477,5.000000,0.750000,14.500000
8478,5.500000,0.750000,14.500000
8479,6.000000,0.750000,14.500000
8480,6.500000,0.750000,14.500000
8481,7.000000,0.750000,14.500000
8482,7.500000,0.750000,14.500000
8483,8.000000,0.750000,14.500000
8484,8.500000,0.750000,14.500000
8485,9.000000,0.750000,14.500000
8486,9.500000,0.750000,14.500000
8487,10.000000,0.750000,14.500000
8488,-10.000000,1.000000,14.500000
8489,-9.500000,1.000000,14.500000
8490,-9.000000,1.000000,14.500000
8491,-8.500000,1.000000,14.500000
8492,-8.000000,1.000000,14.500000
8493,-7.500000,1.000000,14.500000
8494,-7.000000,1.000000,14.500000
8495,-6.500000,1.000000,14.500000
8496,-6.000000,1.000000,14.500000
8497,-5.500000,1.000000,14.500000
8498,-5.000000,1.000000,14.500000
8499,-4.500000,1.000000,14.500000
8500,-4.000000,1.000000,14.500000
8501,-3.500000,1.000000,14.500000
8502,-3.000000,1.000000,14.500000
8503,-2.500000,1.000000,14.500000
8504,-2.000000,1.000000,14.500000
8505,-1.500000,1.000000,14.500000
8506,-1.000000,1.000000,14.500000
8507,-0.500000,1.000000,14.500000
8508,0.000000,1.000000,14.500000
8509,0.500000,1.000000,14.500000
8510,1.000000,1.000000,14.500000
8511,1.500000,1.000000,14.500000
8512,2.000000,1.000000,14.500000
8513,2.500000,1.000000,14.500000
8514,3.000000,1.000000,14.500000
8515,3.500000,1.000000,14.500000
8516,4.000000,1.000000,14.500000
8517,4.500000,1.000000,14.500000
8518,5.000000,1.000000,14.500000
8519,5.500000,1.000000,14.500000
8520,6.000000,1.000000,14.500000
8521,6.500000,1.000000,14.500000
8522,7.000000,1.000000,14.500000
8523,7.500000,1.000000,14.500000
8524,8.000000,1.000000,14.500000
8525,8.500000,1.000000,14.500000
8526,9.000000,1.000000,14.500000
8527,9.500000,1.000000,14.500000
8528,10.000000,1.000000,14.500000
8529,-10.000000,1.250000,14.500000
8530,-9.500000,1.250000,14.500000
8531,-9.000000,1.250000,14.500000
8532,-8.500000,1.250000,14.500000
8533,-8.000000,1.250000,14.500000
8534,-7.500000,1.250000,14.500000
8535,-7.000000,1.250000,14.500000
8536,-6.500000,1.250000,14.500000
8537,-6.000000,1.250000,14.500000
8538,-5.500000,1.250000,14.500000
8539,-5.000000,1.250000,14.500000
8540,-4.500000,1.250000,14.500000
8541,-4.000000,1.250000,14.500000
8542,-3.500000,1.250000,14.500000
8543,-3.000000,1.250000,14.500000
8544,-2.500000,1.250000,14.500000
8545,-2.000000,1.250000,14.500000
8546,-1.500000,1.250000,14.500000
8547,-1.000000,1.250000,14.500000
8548,-0.500000,1.250000,14.500000
8549,0.000000,1.250000,14.500000
8550,0.500000,1.250000,14.500000
8551,1.000000,1.250000,14.500000
8552,1.500000,1.250000,14.500000
8553,2.000000,1.250000,14.500000
8554,2.500000,1.250000,14.500000
8555,3.000000,1.250000,14.500000
8556,3.500000,1.250000,14.500000
8557,4.000000,1.250000,14.500000
8558,4.500000,1.250000,14.500000
8559,5.000000,1.250000,14.500000
8560,5.500000,1.250000,14.500000
8561,6.000000,1.250000,14.500000
8562,6.500000,1.250000,14.500000
8563,7.000000,1.250000,14.500000
8564,7.500000,1.250000,14.500000
8565,8.000000,1.250000,14.500000
8566,8.500000,1.250000,14.500000
8567,9.000000,1.250000,14.500000
8568,9.500000,1.250000,14.500000
8569,10.000000,1.250000,14.500000
8570,-10.000000,1.500000,14.500000
8571,-9.500000,1.500000,14.500000
8572,-9.000000,1.500000,14.500000
8573,-8.500000,1.500000,14.500000
8574,-8.000000,1.500000,14.500000
8575,-7.500000,1.500000,14.500000
8576,-7.000000,1.500000,14.500000
8577,-6.500000,1.500000,14.500000
8578,-6.000000,1.500000,14.500000
8579,-5.500000,1.500000,14.500000
8580,-5.000000,1.500000,14.500000
8581,-4.500000,1.500000,14.500000
8582,-4.000000,1.500000,14.500000
8583,-3.500000,1.500000,14.500000
8584,-3.000000,1.500000,14.500000
8585,-2.500000,1.500000,14.500000
8586,-2.000000,1.500000,14.500000
8587,-1.500000,1.500000,14.500000
8588,-1.000000,1.500000,14.500000
8589,-0.500000,1.500000,14.500000
8590,0.000000,1.500000,14.500000
8591,0.500000,1.500000,14.500000
8592,1.000000,1.500000,14.500000
8593,1.500000,1.500000,14.500000
8594,2.000000,1.500000,14.500000
8595,2.500000,1.500000,14.500000
8596,3.000000,1.500000,14.500000
8597,3.500000,1.500000,14.500000
8598,4.000000,1.500000,14.500000
8599,4.500000,1.500000,14.500000
8600,5.000000,1.500000,14.500000
8601,5.500000,1.500000,14.500000
8602,6.000000,1.500000,14.500000
8603,6.500000,1.500000,14.500000
8604,7.000000,1.500000,14.500000
8605,7.500000,1.500000,14.500000
8606,8.000000,1.500000,14.500000
8607,8.500000,1.500000,14.500000
8608,9.000000,1.500000,14.500000
8609,9.500000,1.500000,14.500000
8610,10.000000,1.500000,14.500000
8611,-10.000000,0.000000,15.000000
8612,-9.500000,0.000000,15.000000
8613,-9.000000,0.000000,15.000000
8614,-8.500000,0.000000,15.000000
8615,-8.000000,0.000000,15.000000
8616,-7.500000,0.000000,15.000000
8617,-7.000000,0.000000,15.000000
8618,-6.500000,0.000000,15.000000
8619,-6.000000,0.000000,15.000000
8620,-5.500000,0.000000,15.000000
8621,-5.000000,0.000000,15.000000
8622,-4.500000,0.000000,15.000000
8623,-4.000000,0.000000,15.000000
8624,-3.500000,0.000000,15.000000
8625,-3.000000,0.000000,15.000000
8626,-2.500000,0.000000,15.000000
8627,-2.000000,0.000000,15.000000
8628,-1.500000,0.000000,15.000000
8629,-1.000000,0.000000,15.000000
8630,-0.500000,0.000000,15.000000
8631,0.000000,0.000000,15.000000
8632,0.500000,0.000000,15.000000
8633,1.000000,0.000000,15.000000
8634,1.500000,0.000000,15.000000
8635,2.000000,0.000000,15.000000
8636,2.500000,0.000000,15.000000
8637,3.000000,0.000000,15.000000
8638,3.500000,0.000000,15.000000
8639,4.000000,0.000000,15.000000
8640,4.500000,0.000000,15.000000
8641,5.000000,0.000000,15.000000
8642,5.500000,0.000000,15.000000
8643,6.000000,0.000000,15.000000
8644,6.500000,0.000000,15.000000
8645,7.000000,0.000000,15.000000
8646,7.500000,0.000000,15.000000
8647,8.000000,0.000000,15.000000
8648,8.500000,0.000000,15.000000
8649,9.000000,0.000000,15.000000
8650,9.500000,0.000000,15.000000
8651,10.000000,0.000000,15.000000
8652,-10.000000,0.250000,15.000000
8653,-9.500000,0.250000,15.000000
8654,-9.000000,0.250000,15.000000
8655,-8.500000,0.250000,15.000000
8656,-8.000000,0.250000,15.000000
8657,-7.500000,0.250000,15.000000
8658,-7.000000,0.250000,15.000000
8659,-6.500000,0.250000,15.000000
8660,-6.000000,0.250000,15.000000
8661,-5.500000,0.250000,15.000000
8662,-5.000000,0.250000,15.000000
8663,-4.500000,0.250000,15.000000
8664,-4.000000,0.250000,15.000000
8665,-3.500000,0.250000,15.000000
8666,-3.000000,0.250000,15.000000
8667,-2.500000,0.250000,15.000000
8668,-2.000000,0.250000,15.000000
8669,-1.500000,0.250000,15.000000
8670,-1.000000,0.250000,15.000000
8671,-0.500000,0.250000,15.000000
8672,0.000000,0.250000,15.000000
8673,0.500000,0.250000,15.000000
8674,1.000000,0.250000,15.000000
8675,1.500000,0.250000,15.000000
8676,2.000000,0.250000,15.000000
8677,2.500000,0.250000,15.000000
8678,3.000000,0.250000,15.000000
8679,3.500000,0.250000,15.000000
8680,4.000000,0.250000,15.000000
8681,4.500000,0.250000,15.000000
8682,5.000000,0.250000,15.000000
8683,5.500000,0.250000,15.000000
8684,6.000000,0.250000,15.000000
8685,6.500000,0.250000,15.000000
8686,7.000000,0.250000,15.000000
8687,7.500000,0.250000,15.000000
8688,8.000000,0.250000,15.000000
8689,8.500000,0.250000,15.000000
8690,9.000000,0.250000,15.000000
8691,9.500000,0.250000,15.000000
8692,10.000000,0.250000,15.000000
8693,-10.000000,0.500000,15.000000
8694,-9.500000,0.500000,15.000000
8695,-9.000000,0.500000,15.000000
8696,-8.500000,0.500000,15.000000
8697,-8.000000,0.500000,15.000000
8698,-7.500000,0.500000,15.000000
8699,-7.000000,0.500000,15.000000
8700,-6.500000,0.500000,15.000000
8701,-6.000000,0.500000,15.000000
8702,-5.500000,0.500000,15.000000
8703,-5.000000,0.500000,15.000000
8704,-4.500000,0.500000,15.000000
8705,-4.000000,0.500000,15.000000
8706,-3.500000,0.500000,15.000000
8707,-3.000000,0.500000,15.000000
8708,-2.500000,0.500000,15.000000
8709,-2.000000,0.500000,15.000000
8710,-1.500000,0.500000,15.000000
8711,-1.000000,0.500000,15.000000
8712,-0.500000,0.500000,15.000000
8713,0.000000,0.500000,15.000000
8714,0.500000,0.500000,15.000000
8715,1.000000,0.500000,15.000000
8716,1.500000,0.500000,15.000000
8717,2.000000,0.500000,15.000000
8718,2.500000,0.500000,15.000000
8719,3.000000,0.500000,15.000000
8720,3.500000,0.500000,15.000000
8721,4.000000,0.500000,15.000000
8722,4.500000,0.500000,15.000000
8723,5.000000,0.500000,15.000000
8724,5.500000,0.500000,15.000000
8725,6.000000,0.500000,15.000000
8726,6.500000,0.500000,15.000000
8727,7.000000,0.500000,15.000000
8728,7.500000,0.500000,15.000000
8729,8.000000,0.500000,15.000000
8730,8.500000,0.500000,15.000000
8731,9.000000,0.500000,15.000000
8732,9.500000,0.500000,15.000000
8733,10.000000,0.500000,15.000000
8734,-10.000000,0.750000,15.000000
8735,-9.500000,0.750000,15.000000
8736,-9.000000,0.750000,15.000000
8737,-8.500000,0.750000,15.000000
8738,-8.000000,0.750000,15.000000
8739,-7.500000,0.750000,15.000000
8740,-7.000000,0.750000,15.000000
8741,-6.500000,0.750000,15.000000
8742,-6.000000,0.750000,15.000000
8743,-5.500000,0.750000,15.000000
8744,-5.000000,0.750000,15.000000
8745,-4.500000,0.750000,15.000000
8746,-4.000000,0.750000,15.000000
8747,-3.500000,0.750000,15.000000
8748,-3.000000,0.750000,15.000000
8749,-2.500000,0.750000,15.000000
8750,-2.000000,0.750000,15.000000
8751,-1.500000,0.750000,15.000000
8752,-1.000000,0.750000,15.000000
8753,-0.500000,0.750000,15.000000
8754,0.000000,0.750000,15.000000
8755,0.500000,0.750000,15.000000
8756,1.000000,0.750000,15.000000
8757,1.500000,0.750000,15.000000
8758,2.000000,0.750000,15.000000
8759,2.500000,0.750000,15.000000
8760,3.000000,0.750000,15.000000
8761,3.500000,0.750000,15.000000
8762,4.000000,0.750000,15.000000
8763,4.500000,0.750000,15.000000
8764,5.000000,0.750000,15.000000
8765,5.500000,0.750000,15.000000
8766,6.000000,0.750000,15.000000
8767,6.500000,0.750000,15.000000
8768,7.000000,0.750000,15.000000
8769,7.500000,0.750000,15.000000
8770,8.000000,0.750000,15.000000
8771,8.500000,0.750000,15.000000
8772,9.000000,0.750000,15.000000
8773,9.500000,0.750000,15.000000
8774,10.000000,0.750000,15.000000
8775,-10.000000,1.000000,15.000000
8776,-9.500000,1.000000,15.000000
8777,-9.000000,1.000000,15.000000
8778,-8.500000,1.000000,15.000000
8779,-8.000000,1.000000,15.000000
8780,-7.500000,1.000000,15.000000
8781,-7.000000,1.000000,15.000000
8782,-6.500000,1.000000,15.000000
8783,-6.000000,1.000000,15.000000
8784,-5.500000,1.000000,15.000000
8785,-5.000000,1.000000,15.000000
8786,-4.500000,1.000000,15.000000
8787,-4.000000,1.000000,15.000000
8788,-3.500000,1.000000,15.000000
8789,-3.000000,1.000000,15.000000
8790,-2.500000,1.000000,15.000000
8791,-2.000000,1.000000,15.000000
8792,-1.500000,1.000000,15.000000
8793,-1.000000,1.000000,15.000000
8794,-0.500000,1.000000,15.000000
8795,0.000000,1.000000,15.000000
8796,0.500000,1.000000,15.000000
8797,1.000000,1.000000,15.000000
8798,1.500000,1.000000,15.000000
8799,2.000000,1.000000,15.000000
8800,2.500000,1.000000,15.000000
8801,3.000000,1.000000,15.000000
8802,3.500000,1.000000,15.000000
8803,4.000000,1.000000,15.000000
8804,4.500000,1.000000,15.000000
8805,5.000000,1.000000,15.000000
8806,5.500000,1.000000,15.000000
8807,6.000000,1.000000,15.000000
8808,6.500000,1.000000,15.000000
8809,7.000000,1.000000,15.000000
8810,7.500000,1.000000,15.000000
8811,8.000000,1.000000,15.000000
8812,8.500000,1.000000,15.000000
8813,9.000000,1.000000,15.000000
8814,9.500000,1.000000,15.000000
8815,10.000000,1.000000,15.000000
8816,-10.000000,1.250000,15.000000
8817,-9.500000,1.250000,15.000000
8818,-9.000000,1.250000,15.000000
8819,-8.500000,1.250000,15.000000
8820,-8.000000,1.250000,15.000000
8821,-7.500000,1.250000,15.000000
8822,-7.000000,1.250000,15.000000
8823,-6.500000,1.250000,15.000000
8824,-6.000000,1.250000,15.000000
8825,-5.500000,1.250000,15.000000
8826,-5.000000,1.250000,15.000000
8827,-4.500000,1.250000,15.000000
8828,-4.000000,1.250000,15.000000
8829,-3.500000,1.250000,15.000000
8830,-3.000000,1.250000,15.000000
8831,-2.500000,1.250000,15.000000
8832,-2.000000,1.250000,15.000000
8833,-1.500000,1.250000,15.000000
8834,-1.000000,1.250000,15.000000
8835,-0.500000,1.250000,15.000000
8836,0.000000,1.250000,15.000000
8837,0.500000,1.250000,15.000000
8838,1.000000,1.250000,15.000000
8839,1.500000,1.250000,15.000000
8840,2.000000,1.250000,15.000000
8841,2.500000,1.250000,15.000000
8842,3.000000,1.250000,15.000000
8843,3.500000,1.250000,15.000000
8844,4.000000,1.250000,15.000000
8845,4.500000,1.250000,15.000000
8846,5.000000,1.250000,15.000000
8847,5.500000,1.250000,15.000000
8848,6.000000,1.250000,15.000000
8849,6.500000,1.250000,15.000000
8850,7.000000,1.250000,15.000000
8851,7.500000,1.250000,15.000000
8852,8.000000,1.250000,15.000000
8853,8.500000,1.250000,15.000000
8854,9.000000,1.250000,15.000000
8855,9.500000,1.250000,15.000000
8856,10.000000,1.250000,15.000000
8857,-10.000000,1.500000,15.000000
8858,-9.500000,1.500000,15.000000
8859,-9.000000,1.500000,15.000000
8860,-8.500000,1.500000,15.000000
8861,-8.000000,1.500000,15.000000
8862,-7.500000,1.500000,15.000000
8863,-7.000000,1.500000,15.000000
8864,-6.500000,1.500000,15.000000
8865,-6.000000,1.500000,15.000000
8866,-5.500000,1.500000,15.000000
8867,-5.000000,1.500000,15.000000
8868,-4.500000,1.500000,15.000000
8869,-4.000000,1.500000,15.000000
8870,-3.500000,1.500000,15.000000
8871,-3.000000,1.500000,15.000000
8872,-2.500000,1.500000,15.000000
8873,-2.000000,1.500000,15.000000
8874,-1.500000,1.500000,15.000000
8875,-1.000000,1.500000,15.000000
8876,-0.500000,1.500000,15.000000
8877,0.000000,1.500000,15.000000
8878,0.500000,1.500000,15.000000
8879,1.000000,1.500000,15.000000
8880,1.500000,1.500000,15.000000
8881,2.000000,1.500000,15.000000
8882,2.500000,1.500000,15.000000
8883,3.000000,1.500000,15.000000
8884,3.500000,1.500000,15.000000
8885,4.000000,1.500000,15.000000
8886,4.500000,1.500000,15.000000
8887,5.000000,1.500000,15.000000
8888,5.500000,1.500000,15.000000
8889,6.000000,1.500000,15.000000
8890,6.500000,1.500000,15.000000
8891,7.000000,1.500000,15.000000
8892,7.500000,1.500000,15.000000
8893,8.000000,1.500000,15.000000
8894,8.500000,1.500000,15.000000
8895,9.000000,1.500000,15.000000
8896,9.500000,1.500000,15.000000
8897,10.000000,1.500000,15.000000
8898,-10.000000,0.000000,15.500000
8899,-9.500000,0.000000,15.500000
8900,-9.000000,0.000000,15.500000
8901,-8.500000,0.000000,15.500000
8902,-8.000000,0.000000,15.500000
8903,-7.500000,0.000000,15.500000
8904,-7.000000,0.000000,15.500000
8905,-6.500000,0.000000,15.500000
8906,-6.000000,0.000000,15.500000
8907,-5.500000,0.000000,15.500000
8908,-5.000000,0.000000,15.500000
8909,-4.500000,0.000000,15.500000
8910,-4.000000,0.000000,15.500000
8911,-3.500000,0.000000,15.500000
8912,-3.000000,0.000000,15.500000
8913,-2.500000,0.000000,15.500000
8914,-2.000000,0.000000,15.500000
8915,-1.500000,0.000000,15.500000
8916,-1.000000,0.000000,15.500000
8917,-0.500000,0.000000,15.500000
8918,0.000000,0.000000,15.500000
8919,0.500000,0.000000,15.500000
8920,1.000000,0.000000,15.500000
8921,1.500000,0.000000,15.500000
8922,2.000000,0.000000,15.500000
8923,2.500000,0.000000,15.500000
8924,3.000000,0.000000,15.500000
8925,3.500000,0.000000,15.500000
8926,4.000000,0.000000,15.500000
8927,4.500000,0.000000,15.500000
8928,5.000000,0.000000,15.500000
8929,5.500000,0.000000,15.500000
8930,6.000000,0.000000,15.500000
8931,6.500000,0.000000,15.500000
8932,7.000000,0.000000,15.500000
8933,7.500000,0.000000,15.500000
8934,8.000000,0.000000,15.500000
8935,8.500000,0.000000,15.500000
8936,9.000000,0.000000,15.500000
8937,9.500000,0.000000,15.500000
8938,10.000000,0.000000,15.500000
8939,-10.000000,0.250000,15.500000
8940,-9.500000,0.250000,15.500000
8941,-9.000000,0.250000,15.500000
8942,-8.500000,0.250000,15.500000
8943,-8.000000,0.250000,15.500000
8944,-7.500000,0.250000,15.500000
8945,-7.000000,0.250000,15.500000
8946,-6.500000,0.250000,15.500000
8947,-6.000000,0.250000,15.500000
8948,-5.500000,0.250000,15.500000
8949,-5.000000,0.250000,15.500000
8950,-4.500000,0.250000,15.500000
8951,-4.000000,0.250000,15.500000
8952,-3.500000,0.250000,15.500000
8953,-3.000000,0.250000,15.500000
8954,-2.500000,0.250000,15.500000
8955,-2.000000,0.250000,15.500000
8956,-1.500000,0.250000,15.500000
8957,-1.000000,0.250000,15.500000
8958,-0.500000,0.250000,15.500000
8959,0.000000,0.250000,15.500000
8960,0.500000,0.250000,15.500000
8961,1.000000,0.250000,15.500000
8962,1.500000,0.250000,15.500000
8963,2.000000,0.250000,15.500000
8964,2.500000,0.250000,15.500000
8965,3.000000,0.250000,15.500000
8966,3.500000,0.250000,15.500000
8967,4.000000,0.250000,15.500000
8968,4.500000,0.250000,15.500000
8969,5.000000,0.250000,15.500000
8970,5.500000,0.250000,15.500000
8971,6.000000,0.250000,15.500000
8972,6.500000,0.250000,15.500000
8973,7.000000,0.250000,15.500000
8974,7.500000,0.250000,15.500000
8975,8.000000,0.250000,15.500000
8976,8.500000,0.250000,15.500000
8977,9.000000,0.250000,15.500000
8978,9.500000,0.250000,15.500000
8979,10.000000,0.250000,15.500000
8980,-10.000000,0.500000,15.500000
8981,-9.500000,0.500000,15.500000
8982,-9.000000,0.500000,15.500000
8983,-8.500000,0.500000,15.500000
8984,-8.000000,0.500000,15.500000
8985,-7.500000,0.500000,15.500000
8986,-7.000000,0.500000,15.500000
8987,-6.500000,0.500000,15.500000
8988,-6.000000,0.500000,15.500000
8989,-5.500000,0.500000,15.500000
8990,-5.000000,0.500000,15.500000
8991,-4.500000,0.500000,15.500000
8992,-4.000000,0.500000,15.500000
8993,-3.500000,0.500000,15.500000
8994,-3.000000,0.500000,15.500000
8995,-2.500000,0.500000,15.500000
8996,-2.000000,0.500000,15.500000
8997,-1.500000,0.500000,15.500000
8998,-1.000000,0.500000,15.500000
8999,-0.500000,0.500000,15.500000
9000,0.000000,0.500000,15.500000
9001,0.500000,0.500000,15.500000
9002,1.000000,0.500000,15.500000
9003,1.500000,0.500000,15.500000
9004,2.000000,0.500000,15.500000
9005,2.500000,0.500000,15.500000
9006,3.000000,0.500000,15.500000
9007,3.500000,0.500000,15.500000
9008,4.000000,0.500000,15.500000
9009,4.500000,0.500000,15.500000
9010,5.000000,0.500000,15.500000
9011,5.500000,0.500000,15.500000
9012,6.000000,0.500000,15.500000
9013,6.500000,0.500000,15.500000
9014,7.000000,0.500000,15.500000
9015,7.500000,0.500000,15.500000
9016,8.000000,0.500000,15.500000
9017,8.500000,0.500000,15.500000
9018,9.000000,0.500000,15.500000
9019,9.500000,0.500000,15.500000
9020,10.000000,0.500000,15.500000
9021,-10.000000,0.750000,15.500000
9022,-9.500000,0.750000,15.500000
9023,-9.000000,0.750000,15.500000
9024,-8.500000,0.750000,15.500000
9025,-8.000000,0.750000,15.500000
9026,-7.500000,0.750000,15.500000
9027,-7.000000,0.750000,15.500000
9028,-6.500000,0.750000,15.500000
9029,-6.000000,0.750000,15.500000
9030,-5.500000,0.750000,15.500000
9031,-5.000000,0.750000,15.500000
9032,-4.500000,0.750000,15.500000
9033,-4.000000,0.750000,15.500000
9034,-3.500000,0.750000,15.500000
9035,-3.000000,0.750000,15.500000
9036,-2.500000,0.750000,15.500000
9037,-2.000000,0.750000,15.500000
9038,-1.500000,0.750000,15.500000
9039,-1.000000,0.750000,15.500000
9040,-0.500000,0.750000,15.500000
9041,0.000000,0.750000,15.500000
9042,0.500000,0.750000,15.500000
9043,1.000000,0.750000,15.500000
9044,1.500000,0.750000,15.500000
9045,2.000000,0.750000,15.500000
9046,2.500000,0.750000,15.500000
9047,3.000000,0.750000,15.500000
9048,3.500000,0.750000,15.500000
9049,4.000000,0.750000,15.500000
9050,4.500000,0.750000,15.500000
9051,5.000000,0.750000,15.500000
9052,5.500000,0.750000,15.500000
9053,6.000000,0.750000,15.500000
9054,6.500000,0.750000,15.500000
9055,7.000000,0.750000,15.500000
9056,7.500000,0.750000,15.500000
9057,8.000000,0.750000,15.500000
9058,8.500000,0.750000,15.500000
9059,9.000000,0.750000,15.500000
9060,9.500000,0.750000,15.500000
9061,10.000000,0.750000,15.500000
9062,-10.000000,1.000000,15.500000
9063,-9.500000,1.000000,15.500000
9064,-9.000000,1.000000,15.500000
9065,-8.500000,1.000000,15.500000
9066,-8.000000,1.000000,15.500000
9067,-7.500000,1.000000,15.500000
9068,-7.000000,1.000000,15.500000
9069,-6.500000,1.000000,15.500000
9070,-6.000000,1.000000,15.500000
9071,-5.500000,1.000000,15.500000
9072,-5.000000,1.000000,15.500000
9073,-4.500000,1.000000,15.500000
9074,-4.000000,1.000000,15.500000
9075,-3.500000,1.000000,15.500000
9076,-3.000000,1.000000,15.500000
9077,-2.500000,1.000000,15.500000
9078,-2.000000,1.000000,15.500000
9079,-1.500000,1.000000,15.500000
9080,-1.000000,1.000000,15.500000
9081,-0.500000,1.000000,15.500000
9082,0.000000,1.000000,15.500000
9083,0.500000,1.000000,15.500000
9084,1.000000,1.000000,15.500000
9085,1.500000,1.000000,15.500000
9086,2.000000,1.000000,15.500000
9087,2.500000,1.000000,15.500000
9088,3.000000,1.000000,15.500000
9089,3.500000,1.000000,15.500000
9090,4.000000,1.000000,15.500000
9091,4.500000,1.000000,15.500000
9092,5.000000,1.000000,15.500000
9093,5.500000,1.000000,15.500000
9094,6.000000,1.000000,15.500000
9095,6.500000,1.000000,15.500000
9096,7.000000,1.000000,15.500000
9097,7.500000,1.000000,15.500000
9098,8.000000,1.000000,15.500000
9099,8.500000,1.000000,15.500000
9100,9.000000,1.000000,15.500000
9101,9.500000,1.000000,15.500000
9102,10.000000,1.000000,15.500000
9103,-10.000000,1.250000,15.500000
9104,-9.500000,1.250000,15.500000
9105,-9.000000,1.250000,15.500000
9106,-8.500000,1.250000,15.500000
9107,-8.000000,1.250000,15.500000
9108,-7.500000,1.250000,15.500000
9109,-7.000000,1.250000,15.500000
9110,-6.500000,1.250000,15.500000
9111,-6.000000,1.250000,15.500000
9112,-5.500000,1.250000,15.500000
9113,-5.000000,1.250000,15.500000
9114,-4.500000,1.250000,15.500000
9115,-4.000000,1.250000,15.500000
9116,-3.500000,1.250000,15.500000
9117,-3.000000,1.250000,15.500000
9118,-2.500000,1.250000,15.500000
9119,-2.000000,1.250000,15.500000
9120,-1.500000,1.250000,15.500000
9121,-1.000000,1.250000,15.500000
9122,-0.500000,1.250000,15.500000
9123,0.000000,1.250000,15.500000
9124,0.500000,1.250000,15.500000
9125,1.000000,1.250000,15.500000
9126,1.500000,1.250000,15.500000
9127,2.000000,1.250000,15.500000
9128,2.500000,1.250000,15.500000
9129,3.000000,1.250000,15.500000
9130,3.500000,1.250000,15.500000
9131,4.000000,1.250000,15.500000
9132,4.500000,1.250000,15.500000
9133,5.000000,1.250000,15.500000
9134,5.500000,1.250000,15.500000
9135,6.000000,1.250000,15.500000
9136,6.500000,1.250000,15.500000
9137,7.000000,1.250000,15.500000
9138,7.500000,1.250000,15.500000
9139,8.000000,1.250000,15.500000
9140,8.500000,1.250000,15.500000
9141,9.000000,1.250000,15.500000
9142,9.500000,1.250000,15.500000
9143,10.000000,1.250000,15.500000
9144,-10.000000,1.500000,15.500000
9145,-9.500000,1.500000,15.500000
9146,-9.000000,1.500000,15.500000
9147,-8.500000,1.500000,15.500000
9148,-8.000000,1.500000,15.500000
9149,-7.500000,1.500000,15.500000
9150,-7.000000,1.500000,15.500000
9151,-6.500000,1.500000,15.500000
9152,-6.000000,1.500000,15.500000
9153,-5.500000,1.500000,15.500000
9154,-5.000000,1.500000,15.500000
9155,-4.500000,1.500000,15.500000
9156,-4.000000,1.500000,15.500000
9157,-3.500000,1.500000,15.500000
9158,-3.000000,1.500000,15.500000
9159,-2.500000,1.500000,15.500000
9160,-2.000000,1.500000,15.500000
9161,-1.500000,1.500000,15.500000
9162,-1.000000,1.500000,15.500000
9163,-0.500000,1.500000,15.500000
9164,0.000000,1.500000,15.500000
9165,0.500000,1.500000,15.500000
9166,1.000000,1.500000,15.500000
9167,1.500000,1.500000,15.500000
9168,2.000000,1.500000,15.500000
9169,2.500000,1.500000,15.500000
9170,3.000000,1.500000,15.500000
9171,3.500000,1.500000,15.500000
9172,4.000000,1.500000,15.500000
9173,4.500000,1.500000,15.500000
9174,5.000000,1.500000,15.500000
9175,5.500000,1.500000,15.500000
9176,6.000000,1.500000,15.500000
9177,6.500000,1.500000,15.500000
9178,7.000000,1.500000,15.500000
9179,7.500000,1.500000,15.500000
9180,8.000000,1.500000,15.500000
9181,8.500000,1.500000,15.500000
9182,9.000000,1.500000,15.500000
9183,9.500000,1.500000,15.500000
9184,10.000000,1.500000,15.500000
9185,-10.000000,0.000000,16.000000
9186,-9.500000,0.000000,16.000000
9187,-9.000000,0.000000,16.000000
9188,-8.500000,0.000000,16.000000
9189,-8.000000,0.000000,16.000000
9190,-7.500000,0.000000,16.000000
9191,-7.000000,0.000000,16.000000
9192,-6.500000,0.000000,16.000000
9193,-6.000000,0.000000,16.000000
9194,-5.500000,0.000000,16.000000
9195,-5.000000,0.000000,16.000000
9196,-4.500000,0.000000,16.000000
9197,-4.000000,0.000000,16.000000
9198,-3.500000,0.000000,16.000000
9199,-3.000000,0.000000,16.000000
9200,-2.500000,0.000000,16.000000
9201,-2.000000,0.000000,16.000000
9202,-1.500000,0.000000,16.000000
9203,-1.000000,0.000000,16.000000
9204,-0.500000,0.000000,16.000000
9205,0.000000,0.000000,16.000000
9206,0.500000,0.000000,16.000000
9207,1.000000,0.000000,16.000000
9208,1.500000,0.000000,16.000000
9209,2.000000,0.000000,16.000000
9210,2.500000,0.000000,16.000000
9211,3.000000,0.000000,16.000000
9212,3.500000,0.000000,16.000000
9213,4.000000,0.000000,16.000000
9214,4.500000,0.000000,16.000000
9215,5.000000,0.000000,16.000000
9216,5.500000,0.000000,16.000000
9217,6.000000,0.000000,16.000000
9218,6.500000,0.000000,16.000000
9219,7.000000,0.000000,16.000000
9220,7.500000,0.000000,16.000000
9221,8.000000,0.000000,16.000000
9222,8.500000,0.000000,16.000000
9223,9.000000,0.000000,16.000000
9224,9.500000,0.000000,16.000000
9225,10.000000,0.000000,16.000000
9226,-10.000000,0.250000,16.000000
9227,-9.500000,0.250000,16.000000
9228,-9.000000,0.250000,16.000000
9229,-8.500000,0.250000,16.000000
9230,-8.000000,0.250000,16.000000
9231,-7.500000,0.250000,16.000000
9232,-7.000000,0.250000,16.000000
9233,-6.500000,0.250000,16.000000
9234,-6.000000,0.250000,16.000000
9235,-5.500000,0.250000,16.000000
9236,-5.000000,0.250000,16.000000
9237,-4.500000,0.250000,16.000000
9238,-4.000000,0.250000,16.000000
9239,-3.500000,0.250000,16.000000
9240,-3.000000,0.250000,16.000000
9241,-2.500000,0.250000,16.000000
9242,-2.000000,0.250000,16.000000
9243,-1.500000,0.250000,16.000000
9244,-1.000000,0.250000,16.000000
9245,-0.500000,0.250000,16.000000
9246,0.000000,0.250000,16.000000
9247,0.500000,0.250000,16.000000
9248,1.000000,0.250000,16.000000
9249,1.500000,0.250000,16.000000
9250,2.000000,0.250000,16.000000
9251,2.500000,0.250000,16.000000
9252,3.000000,0.250000,16.000000
9253,3.500000,0.250000,16.000000
9254,4.000000,0.250000,16.000000
9255,4.500000,0.250000,16.000000
9256,5.000000,0.250000,16.000000
9257,5.500000,0.250000,16.000000
9258,6.000000,0.250000,16.000000
9259,6.500000,0.250000,16.000000
9260,7.000000,0.250000,16.000000
9261,7.500000,0.250000,16.000000
9262,8.000000,0.250000,16.000000
9263,8.500000,0.250000,16.000000
9264,9.000000,0.250000,16.000000
9265,9.500000,0.250000,16.000000
9266,10.000000,0.250000,16.000000
9267,-10.000000,0.500000,16.000000
9268,-9.500000,0.500000,16.000000
9269,-9.000000,0.500000,16.000000
9270,-8.500000,0.500000,16.000000
9271,-8.000000,0.500000,16.000000
9272,-7.500000,0.500000,16.000000
9273,-7.000000,0.500000,16.000000
9274,-6.500000,0.500000,16.000000
9275,-6.000000,0.500000,16.000000
9276,-5.500000,0.500000,16.000000
9277,-5.000000,0.500000,16.000000
9278,-4.500000,0.500000,16.000000
9279,-4.000000,0.500000,16.000000
9280,-3.500000,0.500000,16.000000
9281,-3.000000,0.500000,16.000000
9282,-2.500000,0.500000,16.000000
9283,-2.000000,0.500000,16.000000
9284,-1.500000,0.500000,16.000000
9285,-1.000000,0.500000,16.000000
9286,-0.500000,0.500000,16.000000
9287,0.000000,0.500000,16.000000
9288,0.500000,0.500000,16.000000
9289,1.000000,0.500000,16.000000
9290,1.500000,0.500000,16.000000
9291,2.000000,0.500000,16.000000
9292,2.500000,0.500000,16.000000
9293,3.000000,0.500000,16.000000
9294,3.500000,0.500000,16.000000
9295,4.000000,0.500000,16.000000
9296,4.500000,0.500000,16.000000
9297,5.000000,0.500000,16.000000
9298,5.500000,0.500000,16.000000
9299,6.000000,0.500000,16.000000
9300,6.500000,0.500000,16.000000
9301,7.000000,0.500000,16.000000
9302,7.500000,0.500000,16.000000
9303,8.000000,0.500000,16.000000
9304,8.500000,0.500000,16.000000
9305,9.000000,0.500000,16.000000
9306,9.500000,0.500000,16.000000
9307,10.000000,0.500000,16.000000
9308,-10.000000,0.750000,16.000000
9309,-9.500000,0.750000,16.000000
9310,-9.000000,0.750000,16.000000
9311,-8.500000,0.750000,16.000000
9312,-8.000000,0.750000,16.000000
9313,-7.500000,0.750000,16.000000
9314,-7.000000,0.750000,16.000000
9315,-6.500000,0.750000,16.000000
9316,-6.000000,0.750000,16.000000
9317,-5.500000,0.750000,16.000000
9318,-5.000000,0.750000,16.000000
9319,-4.500000,0.750000,16.000000
9320,-4.000000,0.750000,16.000000
9321,-3.500000,0.750000,16.000000
9322,-3.000000,0.750000,16.000000
9323,-2.500000,0.750000,16.000000
9324,-2.000000,0.750000,16.000000
9325,-1.500000,0.750000,16.000000
9326,-1.000000,0.750000,16.000000
9327,-0.500000,0.750000,16.000000
9328,0.000000,0.750000,16.000000
9329,0.500000,0.750000,16.000000
9330,1.000000,0.750000,16.000000
9331,1.500000,0.750000,16.000000
9332,2.000000,0.750000,16.000000
9333,2.500000,0.750000,16.000000
9334,3.000000,0.750000,16.000000
9335,3.500000,0.750000,16.000000
9336,4.000000,0.750000,16.000000
9337,4.500000,0.750000,16.000000
9338,5.000000,0.750000,16.000000
9339,5.500000,0.750000,16.000000
9340,6.000000,0.750000,16.000000
9341,6.500000,0.750000,16.000000
9342,7.000000,0.750000,16.000000
9343,7.500000,0.750000,16.000000
9344,8.000000,0.750000,16.000000
9345,8.500000,0.750000,16.000000
9346,9.000000,0.750000,16.000000
9347,9.500000,0.750000,16.000000
9348,10.000000,0.750000,16.000000
9349,-10.000000,1.000000,16.000000
9350,-9.500000,1.000000,16.000000
9351,-9.000000,1.000000,16.000000
9352,-8.500000,1.000000,16.000000
9353,-8.000000,1.000000,16.000000
9354,-7.500000,1.000000,16.000000
9355,-7.000000,1.000000,16.000000
9356,-6.500000,1.000000,16.000000
9357,-6.000000,1.000000,16.000000
9358,-5.500000,1.000000,16.000000
9359,-5.000000,1.000000,16.000000
9360,-4.500000,1.000000,16.000000
9361,-4.000000,1.000000,16.000000
9362,-3.500000,1.000000,16.000000
9363,-3.000000,1.000000,16.000000
9364,-2.500000,1.000000,16.000000
9365,-2.000000,1.000000,16.000000
9366,-1.500000,1.000000,16.000000
9367,-1.000000,1.000000,16.000000
9368,-0.500000,1.000000,16.000000
9369,0.000000,1.000000,16.000000
9370,0.500000,1.000000,16.000000
9371,1.000000,1.000000,16.000000
9372,1.500000,1.000000,16.000000
9373,2.000000,1.000000,16.000000
9374,2.500000,1.000000,16.000000
9375,3.000000,1.000000,16.000000
9376,3.500000,1.000000,16.000000
9377,4.000000,1.000000,16.000000
9378,4.500000,1.000000,16.000000
9379,5.000000,1.000000,16.000000
9380,5.500000,1.000000,16.000000
9381,6.000000,1.000000,16.000000
9382,6.500000,1.000000,16.000000
9383,7.000000,1.000000,16.000000
9384,7.500000,1.000000,16.000000
9385,8.000000,1.000000,16.000000
9386,8.500000,1.000000,16.000000
9387,9.000000,1.000000,16.000000
9388,9.500000,1.000000,16.000000
9389,10.000000,1.000000,16.000000
9390,-10.000000,1.250000,16.000000
9391,-9.500000,1.250000,16.000000
9392,-9.000000,1.250000,16.000000
9393,-8.500000,1.250000,16.000000
9394,-8.000000,1.250000,16.000000
9395,-7.500000,1.250000,16.000000
9396,-7.000000,1.250000,16.000000
9397,-6.500000,1.250000,16.000000
9398,-6.000000,1.250000,16.000000
9399,-5.500000,1.250000,16.000000
9400,-5.000000,1.250000,16.000000
9401,-4.500000,1.250000,16.000000
9402,-4.000000,1.250000,16.000000
9403,-3.500000,1.250000,16.000000
9404,-3.000000,1.250000,16.000000
9405,-2.500000,1.250000,16.000000
9406,-2.000000,1.250000,16.000000
9407,-1.500000,1.250000,16.000000
9408,-1.000000,1.250000,16.000000
9409,-0.500000,1.250000,16.000000
9410,0.000000,1.250000,16.000000
9411,0.500000,1.250000,16.000000
9412,1.000000,1.250000,16.000000
9413,1.500000,1.250000,16.000000
9414,2.000000,1.250000,16.000000
9415,2.500000,1.250000,16.000000
9416,3.000000,1.250000,16.000000
9417,3.500000,1.250000,16.000000
9418,4.000000,1.250000,16.000000
9419,4.500000,1.250000,16.000000
9420,5.000000,1.250000,16.000000
9421,5.500000,1.250000,16.000000
9422,6.000000,1.250000,16.000000
9423,6.500000,1.250000,16.000000
9424,7.000000,1.250000,16.000000
9425,7.500000,1.250000,16.000000
9426,8.000000,1.250000,16.000000
9427,8.500000,1.250000,16.000000
9428,9.000000,1.250000,16.000000
9429,9.500000,1.250000,16.000000
9430,10.000000,1.250000,16.000000
9431,-10.000000,1.500000,16.000000
9432,-9.500000,1.500000,16.000000
9433,-9.000000,1.500000,16.000000
9434,-8.500000,1.500000,16.000000
9435,-8.000000,1.500000,16.000000
9436,-7.500000,1.500000,16.000000
9437,-7.000000,1.500000,16.000000
9438,-6.500000,1.500000,16.000000
9439,-6.000000,1.500000,16.000000
9440,-5.500000,1.500000,16.000000
9441,-5.000000,1.500000,16.000000
9442,-4.500000,1.500000,16.000000
9443,-4.000000,1.500000,16.000000
9444,-3.500000,1.500000,16.000000
9445,-3.000000,1.500000,16.000000
9446,-2.500000,1.500000,16.000000
9447,-2.000000,1.500000,16.000000
9448,-1.500000,1.500000,16.000000
9449,-1.000000,1.500000,16.000000
9450,-0.500000,1.500000,16.000000
9451,0.000000,1.500000,16.000000
9452,0.500000,1.500000,16.000000
9453,1.000000,1.500000,16.000000
9454,1.500000,1.500000,16.000000
9455,2.000000,1.500000,16.000000
9456,2.500000,1.500000,16.000000
9457,3.000000,1.500000,16.000000
9458,3.500000,1.500000,16.000000
9459,4.000000,1.500000,16.000000
9460,4.500000,1.500000,16.000000
9461,5.000000,1.500000,16.000000
9462,5.500000,1.500000,16.000000
9463,6.000000,1.500000,16.000000
9464,6.500000,1.500000,16.000000
9465,7.000000,1.500000,16.000000
9466,7.500000,1.500000,16.000000
9467,8.000000,1.500000,16.000000
9468,8.500000,1.500000,16.000000
9469,9.000000,1.500000,16.000000
9470,9.500000,1.500000,16.000000
9471,10.000000,1.500000,16.000000
*ELEMENT,TYPE=C3D8R,ELSET=WALL
1,1,2,43,42,288,289,330,329
2,2,3,44,43,289,290,331,330
3,3,4,45,44,290,291,332,331
4,4,5,46,45,291,292,333,332
5,5,6,47,46,292,293,334,333
6,6,7,48,47,293,294,335,334
7,7,8,49,48,294,295,336,335
8,8,9,50,49,295,296,337,336
9,9,10,51,50,296,297,338,337
10,10,11,52,51,297,298,339,338
11,11,12,53,52,298,299,340,339
12,12,13,54,53,299,300,341,340
13,13,14,55,54,300,301,342,341
14,14,15,56,55,301,302,343,342
15,15,16,57,56,302,303,344,343
16,16,17,58,57,303,304,345,344
17,17,18,59,58,304,305,346,345
18,18,19,60,59,305,306,347,346
19,19,20,61,60,306,307,348,347
20,20,21,62,61,307,308,349,348
21,21,22,63,62,308,309,350,349
22,22,23,64,63,309,310,351,350
23,23,24,65,64,310,311,352,351
24,24,25,66,65,311,312,353,352
25,25,26,67,66,312,313,354,353
26,26,27,68,67,313,314,355,354
27,27,28,69,68,314,315,356,355
28,28,29,70,69,315,316,357,356
29,29,30,71,70,316,317,358,357
30,30,31,72,71,317,318,359,358
31,31,32,73,72,318,319,360,359
32,32,33,74,73,319,320,361,360
33,33,34,75,74,320,321,362,361
34,34,35,76,75,321,322,363,362
35,35,36,77,76,322,323,364,363
36,36,37,78,77,323,324,365,364
37,37,38,79,78,324,325,366,365
38,38,39,80,79,325,326,367,366
39,39,40,81,80,326,327,368,367
40,40,41,82,81,327,328,369,368
41,42,43,84,83,329,330,371,370
42,43,44,85,84,330,331,372,371
43,44,45,86,85,331,332,373,372
44,45,46,87,86,332,333,374,373
45,46,47,88,87,333,334,375,374
46,47,48,89,88,334,335,376,375
47,48,49,90,89,335,336,377,376
48,49,50,91,90,336,337,378,377
49,50,51,92,91,337,338,379,378
50,51,52,93,92,338,339,380,379
51,52,53,94,93,339,340,381,380
52,53,54,95,94,340,341,382,381
53,54,55,96,95,341,342,383,382
54,55,56,97,96,342,343,384,383
55,56,57,98,97,343,344,385,384
56,57,58,99,98,344,345,386,385
57,58,59,100,99,345,346,387,386
58,59,60,101,100,346,347,388,387
59,60,61,102,101,347,348,389,388
60,61,62,103,102,348,349,390,389
61,62,63,104,103,349,350,391,390
62,63,64,105,104,350,351,392,391
63,64,65,106,105,351,352,393,392
64,65,66,107,106,352,353,394,393
65,66,67,108,107,353,354,395,394
66,67,68,109,108,354,355,396,395
67,68,69,110,109,355,356,397,396
68,69,70,111,110,356,357,398,397
69,70,71,112,111,357,358,399,398
70,71,72,113,112,358,359,400,399
71,72,73,114,113,359,360,401,400
72,73,74,115,114,360,361,402,401
73,74,75,116,115,361,362,403,402
74,75,76,117,116,362,363,404,403
75,76,77,118,117,363,364,405,404
76,77,78,119,118,364,365,406,405
77,78,79,120,119,365,366,407,406
78,79,80,121,120,366,367,408,407
79,80,81,122,121,367,368,409,408
80,81,82,123,122,368,369,410,409
81,83,84,125,124,370,371,412,411
82,84,85,126,125,371,372,413,412
83,85,86,127,126,372,373,414,413
84,86,87,128,127,373,374,415,414
85,87,88,129,128,374,375,416,415
86,88,89,130,129,375,376,417,416
87,89,90,131,130,376,377,418,417
88,90,91,132,131,377,378,419,418
89,91,92,133,132,378,379,420,419
90,92,93,134,133,379,380,421,420
91,93,94,135,134,380,381,422,421
92,94,95,136,135,381,382,423,422
93,95,96,137,136,382,383,424,423
94,96,97,138,137,383,384,425,424
95,97,98,139,138,384,385,426,425
96,98,99,140,139,385,386,427,426
97,99,100,141,140,386,387,428,427
98,100,101,142,141,387,388,429,428
99,101,102,143,142,388,389,430,429
100,102,103,144,143,389,390,431,430
101,103,104,145,144,390,391,432,431
102,104,105,146,145,391,392,433,432
103,105,106,147,146,392,393,434,433
104,106,107,148,147,393,394,435,434
105,107,108,149,148,394,395,436,435
106,108,109,150,149,395,396,437,436
107,109,110,151,150,396,397,438,437
108,110,111,152,151,397,398,439,438
109,111,112,153,152,398,399,440,439
110,112,113,154,153,399,400,441,440
111,113,114,155,154,400,401,442,441
112,114,115,156,155,401,402,443,442
113,115,116,157,156,402,403,444,443
114,116,117,158,157,403,404,445,444
115,117,118,159,158,404,405,446,445
116,118,119,160,159,405,406,447,446
117,119,120,161,160,406,407,448,447
118,120,121,162,161,407,408,449,448
119,121,122,163,162,408,409,450,449
120,122,123,164,163,409,410,451,450
121,124,125,166,165,411,412,453,452
122,125,126,167,166,412,413,454,453
123,126,127,168,167,413,414,455,454
124,127,128,169,168,414,415,456,455
125,128,129,170,169,415,416,457,456
126,129,130,171,170,416,417,458,457
127,130,131,172,171,417,418,459,458
128,131,132,173,172,418,419,460,459
129,132,133,174,173,419,420,461,460
130,133,134,175,174,420,421,462,461
131,134,135,176,175,421,422,463,462
132,135,136,177,176,422,423,464,463
133,136,137,178,177,423,424,465,464
134,137,138,179,178,424,425,466,465
135,138,139,180,179,425,426,467,466
136,139,140,181,180,426,427,468,467
137,140,141,182,181,427,428,469,468
138,141,142,183,182,428,429,470,469
139,142,143,184,183,429,430,471,470
140,143,144,185,184,430,431,472,471
141,144,145,186,185,431,432,473,472
142,145,146,187,186,432,433,474,473
143,146,147,188,187,433,434,475,474
144,147,148,189,188,434,435,476,475
145,148,149,190,189,435,436,477,476
146,149,150,191,190,436,437,478,477
147,150,151,192,191,437,438,479,478
148,151,152,193,192,438,439,480,479
149,152,153,194,193,439,440,481,480
150,153,154,195,194,440,441,482,481
151,154,155,196,195,441,442,483,482
152,155,156,197,196,442,443,484,483
153,156,157,198,197,443,444,485,484
154,157,158,199,198,444,445,486,485
155,158,159,200,199,445,446,487,486
156,159,160,201,200,446,447,488,487
157,160,161,202,201,447,448,489,488
158,161,162,203,202,448,449,490,489
159,162,163,204,203,449,450,491,490
160,163,164,205,204,450,451,492,491
161,165,166,207,206,452,453,494,493
162,166,167,208,207,453,454,495,494
163,167,168,209,208,454,455,496,495
164,168,169,210,209,455,456,497,496
165,169,170,211,210,456,457,498,497
166,170,171,212,211,457,458,499,498
167,171,172,213,212,458,459,500,499
168,172,173,214,213,459,460,501,500
169,173,174,215,214,460,461,502,501
170,174,175,216,215,461,462,503,502
171,175,176,217,216,462,463,504,503
172,176,177,218,217,463,464,505,504
173,177,178,219,218,464,465,506,505
174,178,179,220,219,465,466,507,506
175,179,180,221,220,466,467,508,507
176,180,181,222,221,467,468,509,508
177,181,182,223,222,468,469,510,509
178,182,183,224,223,469,470,511,510
179,183,184,225,224,470,471,512,511
180,184,185,226,225,471,472,513,512
181,185,186,227,226,472,473,514,513
182,186,187,228,227,473,474,515,514
183,187,188,229,228,474,475,516,515
184,188,189,230,229,475,476,517,516
185,189,190,231,230,476,477,518,517
186,190,191,232,231,477,478,519,518
187,191,192,233,232,478,479,520,519
188,192,193,234,233,479,480,521,520
189,193,194,235,234,480,481,522,521
190,194,195,236,235,481,482,523,522
191,195,196,237,236,482,483,524,523
192,196,197,238,237,483,484,525,524
193,197,198,239,238,484,485,526,525
194,198,199,240,239,485,486,527,526
195,199,200,241,240,486,487,528,527
196,200,201,242,241,487,488,529,528
197,201,202,243,242,488,489,530,529
198,202,203,244,243,489,490,531,530
199,203,204,245,244,490,491,532,531
200,204,205,246,245,491,492,533,532
201,206,207,248,247,493,494,535,534
202,207,208,249,248,494,495,536,535
203,208,209,250,249,495,496,537,536
204,209,210,251,250,496,497,538,537
205,210,211,252,251,497,498,539,538
206,211,212,253,252,498,499,540,539
207,212,213,254,253,499,500,541,540
208,213,214,255,254,500,501,542,541
209,214,215,256,255,501,502,543,542
210,215,216,257,256,502,503,544,543
211,216,217,258,257,503,504,545,544
212,217,218,259,258,504,505,546,545
213,218,219,260,259,505,506,547,546
214,219,220,261,260,506,507,548,547
215,220,221,262,261,507,508,549,548
216,221,222,263,262,508,509,550,549
217,222,223,264,263,509,510,551,550
218,223,224,265,264,510,511,552,551
219,224,225,266,265,511,512,553,552
220,225,226,267,266,512,513,554,553
221,226,227,268,267,513,514,555,554
222,227,228,269,268,514,515,556,555
223,228,229,270,269,515,516,557,556
224,229,230,271,270,516,517,558,557
225,230,231,272,271,517,518,559,558
226,231,232,273,272,518,519,560,559
227,232,233,274,273,519,520,561,560
228,233,234,275,274,520,521,562,561
229,234,235,276,275,521,522,563,562
230,235,236,277,276,522,523,564,563
231,236,237,278,277,523,524,565,564
232,237,238,279,278,524,525,566,565
233,238,239,280,279,525,526,567,566
234,239,240,281,280,526,527,568,567
235,240,241,282,281,527,528,569,568
236,241,242,283,282,528,529,570,569
237,242,243,284,283,529,530,571,570
238,243,244,285,284,530,531,572,571
239,244,245,286,285,531,532,573,572
240,245,246,287,286,532,533,574,573
241,288,289,330,329,575,576,617,616
242,289,290,331,330,576,577,618,617
243,290,291,332,331,577,578,619,618
244,291,292,333,332,578,579,620,619
245,292,293,334,333,579,580,621,620
246,293,294,335,334,580,581,622,621
247,294,295,336,335,581,582,623,622
248,295,296,337,336,582,583,624,623
249,296,297,338,337,583,584,625,624
250,297,298,339,338,584,585,626,625
251,298,299,340,339,585,586,627,626
252,299,300,341,340,586,587,628,627
253,300,301,342,341,587,588,629,628
254,301,302,343,342,588,589,630,629
255,302,303,344,343,589,590,631,630
256,303,304,345,344,590,591,632,631
257,304,305,346,345,591,592,633,632
258,305,306,347,346,592,593,634,633
259,306,307,348,347,593,594,635,634
260,307,308,349,348,594,595,636,635
261,308,309,350,349,595,596,637,636
262,309,310,351,350,596,597,638,637
263,310,311,352,351,597,598,639,638
264,311,312,353,352,598,599,640,639
265,312,313,354,353,599,600,641,640
266,313,314,355,354,600,601,642,641
267,314,315,356,355,601,602,643,642
268,315,316,357,356,602,603,644,643
269,316,317,358,357,603,604,645,644
270,317,318,359,358,604,605,646,645
271,318,319,360,359,605,606,647,646
272,319,320,361,360,606,607,648,647
273,320,321,362,361,607,608,649,648
274,321,322,363,362,608,609,650,649
275,322,323,364,363,609,610,651,650
276,323,324,365,364,610,611,652,651
277,324,325,366,365,611,612,653,652
278,325,326,367,366,612,613,654,653
279,326,327,368,367,613,614,655,654
280,327,328,369,368,614,615,656,655
281,329,330,371,370,616,617,658,657
282,330,331,372,371,617,618,659,658
283,331,332,373,372,618,619,660,659
284,332,333,374,373,619,620,661,660
285,333,334,375,374,620,621,662,661
286,334,335,376,375,621,622,663,662
287,335,336,377,376,622,623,664,663
288,336,337,378,377,623,624,665,664
289,337,338,379,378,624,625,666,665
290,338,339,380,379,625,626,667,666
291,339,340,381,380,626,627,668,667
292,340,341,382,381,627,628,669,668
293,341,342,383,382,628,629,670,669
294,342,343,384,383,629,630,671,670
295,343,344,385,384,630,631,672,671
296,344,345,386,385,631,632,673,672
297,345,346,387,386,632,633,674,673
298,346,347,388,387,633,634,675,674
299,347,348,389,388,634,635,676,675
300,348,349,390,389,635,636,677,676
301,349,350,391,390,636,637,678,677
302,350,351,392,391,637,638,679,678
303,351,352,393,392,638,639,680,679
304,352,353,394,393,639,640,681,680
305,353,354,395,394,640,641,682,681
306,354,355,396,395,641,642,683,682
307,355,356,397,396,642,643,684,683
308,356,357,398,397,643,644,685,684
309,357,358,399,398,644,645,686,685
310,358,359,400,399,645,646,687,686
311,359,360,401,400,646,647,688,687
312,360,361,402,401,647,648,689,688
313,361,362,403,402,648,649,690,689
314,362,363,404,403,649,650,691,690
315,363,364,405,404,650,651,692,691
316,364,365,406,405,651,652,693,692
317,365,366,407,406,652,653,694,693
318,366,367,408,407,653,654,695,694
319,367,368,409,408,654,655,696,695
320,368,369,410,409,655,656,697,696
321,370,371,412,411,657,658,699,698
322,371,372,413,412,658,659,700,699
323,372,373,414,413,659,660,701,700
324,373,374,415,414,660,661,702,701
325,374,375,416,415,661,662,703,702
326,375,376,417,416,662,663,704,703
327,376,377,418,417,663,664,705,704
328,377,378,419,418,664,665,706,705
329,378,379,420,419,665,666,707,706
330,379,380,421,420,666,667,708,707
331,380,381,422,421,667,668,709,708
332,381,382,423,422,668,669,710,709
333,382,383,424,423,669,670,711,710
334,383,384,425,424,670,671,712,711
335,384,385,426,425,671,672,713,712
336,385,386,427,426,672,673,714,713
337,386,387,428,427,673,674,715,714
338,387,388,429,428,674,675,716,715
339,388,389,430,429,675,676,717,716
340,389,390,431,430,676,677,718,717
341,390,391,432,431,677,678,719,718
342,391,392,433,432,678,679,720,719
343,392,393,434,433,679,680,721,720
344,393,394,435,434,680,681,722,721
345,394,395,436,435,681,682,723,722
346,395,396,437,436,682,683,724,723
347,396,397,438,437,683,684,725,724
348,397,398,439,438,684,685,726,725
349,398,399,440,439,685,686,727,726
350,399,400,441,440,686,687,728,727
351,400,401,442,441,687,688,729,728
352,401,402,443,442,688,689,730,729
353,402,403,444,443,689,690,731,730
354,403,404,445,444,690,691,732,731
355,404,405,446,445,691,692,733,732
356,405,406,447,446,692,693,734,733
357,406,407,448,447,693,694,735,734
358,407,408,449,448,694,695,736,735
359,408,409,450,449,695,696,737,736
360,409,410,451,450,696,697,738,737
361,411,412,453,452,698,699,740,739
362,412,413,454,453,699,700,741,740
363,413,414,455,454,700,701,742,741
364,414,415,456,455,701,702,743,742
365,415,416,457,456,702,703,744,743
366,416,417,458,457,703,704,745,744
367,417,418,459,458,704,705,746,745
368,418,419,460,459,705,706,747,746
369,419,420,461,460,706,707,748,747
370,420,421,462,461,707,708,749,748
371,421,422,463,462,708,709,750,749
372,422,423,464,463,709,710,751,750
373,423,424,465,464,710,711,752,751
374,424,425,466,465,711,712,753,752
375,425,426,467,466,712,713,754,753
376,426,427,468,467,713,714,755,754
377,427,428,469,468,714,715,756,755
378,428,429,470,469,715,716,757,756
379,429,430,471,470,716,717,758,757
380,430,431,472,471,717,718,759,758
381,431,432,473,472,718,719,760,759
382,432,433,474,473,719,720,761,760
383,433,434,475,474,720,721,762,761
384,434,435,476,475,721,722,763,762
385,435,436,477,476,722,723,764,763
386,436,437,478,477,723,724,765,764
387,437,438,479,478,724,725,766,765
388,438,439,480,479,725,726,767,766
389,439,440,481,480,726,727,768,767
390,440,441,482,481,727,728,769,768
391,441,442,483,482,728,729,770,769
392,442,443,484,483,729,730,771,770
393,443,444,485,484,730,731,772,771
394,444,445,486,485,731,732,773,772
395,445,446,487,486,732,733,774,773
396,446,447,488,487,733,734,775,774
397,447,448,489,488,734,735,776,775
398,448,449,490,489,735,736,777,776
399,449,450,491,490,736,737,778,777
400,450,451,492,491,737,738,779,778
401,452,453,494,493,739,740,781,780
402,453,454,495,494,740,741,782,781
403,454,455,496,495,741,742,783,782
404,455,456,497,496,742,743,784,783
405,456,457,498,497,743,744,785,784
406,457,458,499,498,744,745,786,785
407,458,459,500,499,745,746,787,786
408,459,460,501,500,746,747,788,787
409,460,461,502,501,747,748,789,788
410,461,462,503,502,748,749,790,789
411,462,463,504,503,749,750,791,790
412,463,464,505,504,750,751,792,791
413,464,465,506,505,751,752,793,792
414,465,466,507,506,752,753,794,793
415,466,467,508,507,753,754,795,794
416,467,468,509,508,754,755,796,795
417,468,469,510,509,755,756,797,796
418,469,470,511,510,756,757,798,797
419,470,471,512,511,757,758,799,798
420,471,472,513,512,758,759,800,799
421,472,473,514,513,759,760,801,800
422,473,474,515,514,760,761,802,801
423,474,475,516,515,761,762,803,802
424,475,476,517,516,762,763,804,803
425,476,477,518,517,763,764,805,804
426,477,478,519,518,764,765,806,805
427,478,479,520,519,765,766,807,806
428,479,480,521,520,766,767,808,807
429,480,481,522,521,767,768,809,808
430,481,482,523,522,768,769,810,809
431,482,483,524,523,769,770,811,810
432,483,484,525,524,770,771,812,811
433,484,485,526,525,771,772,813,812
434,485,486,527,526,772,773,814,813
435,486,487,528,527,773,774,815,814
436,487,488,529,528,774,775,816,815
437,488,489,530,529,775,776,817,816
438,489,490,531,530,776,777,818,817
439,490,491,532,531,777,778,819,818
440,491,492,533,532,778,779,820,819
441,493,494,535,534,780,781,822,821
442,494,495,536,535,781,782,823,822
443,495,496,537,536,782,783,824,823
444,496,497,538,537,783,784,825,824
445,497,498,539,538,784,785,826,825
446,498,499,540,539,785,786,827,826
447,499,500,541,540,786,787,828,827
448,500,501,542,541,787,788,829,828
449,501,502,543,542,788,789,830,829
450,502,503,544,543,789,790,831,830
451,503,504,545,544,790,791,832,831
452,504,505,546,545,791,792,833,832
453,505,506,547,546,792,793,834,833
454,506,507,548,547,793,794,835,834
455,507,508,549,548,794,795,836,835
456,508,509,550,549,795,796,837,836
457,509,510,551,550,796,797,838,837
458,510,511,552,551,797,798,839,838
459,511,512,553,552,798,799,840,839
460,512,513,554,553,799,800,841,840
461,513,514,555,554,800,801,842,841
462,514,515,556,555,801,802,843,842
463,515,516,557,556,802,803,844,843
464,516,517,558,557,803,804,845,844
465,517,518,559,558,804,805,846,845
466,518,519,560,559,805,806,847,846
467,519,520,561,560,806,807,848,847
468,520,521,562,561,807,808,849,848
469,521,522,563,562,808,809,850,849
470,522,523,564,563,809,810,851,850
471,523,524,565,564,810,811,852,851
472,524,525,566,565,811,812,853,852
473,525,526,567,566,812,813,854,853
474,526,527,568,567,813,814,855,854
475,527,528,569,568,814,815,856,855
476,528,529,570,569,815,816,857,856
477,529,530,571,570,816,817,858,857
478,530,531,572,571,817,818,859,858
479,531,532,573,572,818,819,860,859
480,532,533,574,573,819,820,861,860
481,575,576,617,616,862,863,904,903
482,576,577,618,617,863,864,905,904
483,577,578,619,618,864,865,906,905
484,578,579,620,619,865,866,907,906
485,579,580,621,620,866,867,908,907
486,580,581,622,621,867,868,909,908
487,581,582,623,622,868,869,910,909
488,582,583,624,623,869,870,911,910
489,583,584,625,624,870,871,912,911
490,584,585,626,625,871,872,913,912
491,585,586,627,626,872,873,914,913
492,586,587,628,627,873,874,915,914
493,587,588,629,628,874,875,916,915
494,588,589,630,629,875,876,917,916
495,589,590,631,630,876,877,918,917
496,590,591,632,631,877,878,919,918
497,591,592,633,632,878,879,920,919
498,592,593,634,633,879,880,921,920
499,593,594,635,634,880,881,922,921
500,594,595,636,635,881,882,923,922
501,595,596,637,636,882,883,924,923
502,596,597,638,637,883,884,925,924
503,597,598,639,638,884,885,926,925
504,598,599,640,639,885,886,927,926
505,599,600,641,640,886,887,928,927
506,600,601,642,641,887,888,929,928
507,601,602,643,642,888,889,930,929
508,602,603,644,643,889,890,931,930
509,603,604,645,644,890,891,932,931
510,604,605,646,645,891,892,933,932
511,605,606,647,646,892,893,934,933
512,606,607,648,647,893,894,935,934
513,607,608,649,648,894,895,936,935
514,608,609,650,649,895,896,937,936
515,609,610,651,650,896,897,938,937
516,610,611,652,651,897,898,939,938
517,611,612,653,652,898,899,940,939
518,612,613,654,653,899,900,941,940
519,613,614,655,654,900,901,942,941
520,614,615,656,655,901,902,943,942
521,616,617,658,657,903,904,945,944
522,617,618,659,658,904,905,946,945
523,618,619,660,659,905,906,947,946
524,619,620,661,660,906,907,948,947
525,620,621,662,661,907,908,949,948
526,621,622,663,662,908,909,950,949
527,622,623,664,663,909,910,951,950
528,623,624,665,664,910,911,952,951
529,624,625,666,665,911,912,953,952
530,625,626,667,666,912,913,954,953
531,626,627,668,667,913,914,955,954
532,627,628,669,668,914,915,956,955
533,628,629,670,669,915,916,957,956
534,629,630,671,670,916,917,958,957
535,630,631,672,671,917,918,959,958
536,631,632,673,672,918,919,960,959
537,632,633,674,673,919,920,961,960
538,633,634,675,674,920,921,962,961
539,634,635,676,675,921,922,963,962
540,635,636,677,676,922,923,964,963
541,636,637,678,677,923,924,965,964
542,637,638,679,678,924,925,966,965
543,638,639,680,679,925,926,967,966
544,639,640,681,680,926,927,968,967
545,640,641,682,681,927,928,969,968
546,641,642,683,682,928,929,970,969
547,642,643,684,683,929,930,971,970
548,643,644,685,684,930,931,972,971
549,644,645,686,685,931,932,973,972
550,645,646,687,686,932,933,974,973
551,646,647,688,687,933,934,975,974
552,647,648,689,688,934,935,976,975
553,648,649,690,689,935,936,977,976
554,649,650,691,690,936,937,978,977
555,650,651,692,691,937,938,979,978
556,651,652,693,692,938,939,980,979
557,652,653,694,693,939,940,981,980
558,653,654,695,694,940,941,982,981
559,654,655,696,695,941,942,983,982
560,655,656,697,696,942,943,984,983
561,657,658,699,698,944,945,986,985
562,658,659,700,699,945,946,987,986
563,659,660,701,700,946,947,988,987
564,660,661,702,701,947,948,989,988
565,661,662,703,702,948,949,990,989
566,662,663,704,703,949,950,991,990
567,663,664,705,704,950,951,992,991
568,664,665,706,705,951,952,993,992
569,665,666,707,706,952,953,994,993
570,666,667,708,707,953,954,995,994
571,667,668,709,708,954,955,996,995
572,668,669,710,709,955,956,997,996
573,669,670,711,710,956,957,998,997
574,670,671,712,711,957,958,999,998
575,671,672,713,712,958,959,1000,999
576,672,673,714,713,959,960,1001,1000
577,673,674,715,714,960,961,1002,1001
578,674,675,716,715,961,962,1003,1002
579,675,676,717,716,962,963,1004,1003
580,676,677,718,717,963,964,1005,1004
581,677,678,719,718,964,965,1006,1005
582,678,679,720,719,965,966,1007,1006
583,679,680,721,720,966,967,1008,1007
584,680,681,722,721,967,968,1009,1008
585,681,682,723,722,968,969,1010,1009
586,682,683,724,723,969,970,1011,1010
587,683,684,725,724,970,971,1012,1011
588,684,685,726,725,971,972,1013,1012
589,685,686,727,726,972,973,1014,1013
590,686,687,728,727,973,974,1015,1014
591,687,688,729,728,974,975,1016,1015
592,688,689,730,729,975,976,1017,1016
593,689,690,731,730,976,977,1018,1017
594,690,691,732,731,977,978,1019,1018
595,691,692,733,732,978,979,1020,1019
596,692,693,734,733,979,980,1021,1020
597,693,694,735,734,980,981,1022,1021
598,694,695,736,735,981,982,1023,1022
599,695,696,737,736,982,983,1024,1023
600,696,697,738,737,983,984,1025,1024
601,698,699,740,739,985,986,1027,1026
602,699,700,741,740,986,987,1028,1027
603,700,701,742,741,987,988,1029,1028
604,701,702,743,742,988,989,1030,1029
605,702,703,744,743,989,990,1031,1030
606,703,704,745,744,990,991,1032,1031
607,704,705,746,745,991,992,1033,1032
608,705,706,747,746,992,993,1034,1033
609,706,707,748,747,993,994,1035,1034
610,707,708,749,748,994,995,1036,1035
611,708,709,750,749,995,996,1037,1036
612,709,710,751,750,996,997,1038,1037
613,710,711,752,751,997,998,1039,1038
614,711,712,753,752,998,999,1040,1039
615,712,713,754,753,999,1000,1041,1040
616,713,714,755,754,1000,1001,1042,1041
617,714,715,756,755,1001,1002,1043,1042
618,715,716,757,756,1002,1003,1044,1043
619,716,717,758,757,1003,1004,1045,1044
620,717,718,759,758,1004,1005,1046,1045
621,718,719,760,759,1005,1006,1047,1046
622,719,720,761,760,1006,1007,1048,1047
623,720,721,762,761,1007,1008,1049,1048
624,721,722,763,762,1008,1009,1050,1049
625,722,723,764,763,1009,1010,1051,1050
626,723,724,765,764,1010,1011,1052,1051
627,724,725,766,765,1011,1012,1053,1052
628,725,726,767,766,1012,1013,1054,1053
629,726,727,768,767,1013,1014,1055,1054
630,727,728,769,768,1014,1015,1056,1055
631,728,729,770,769,1015,1016,1057,1056
632,729,730,771,770,1016,1017,1058,1057
633,730,731,772,771,1017,1018,1059,1058
634,731,732,773,772,1018,1019,1060,1059
635,732,733,774,773,1019,1020,1061,1060
636,733,734,775,774,1020,1021,1062,1061
637,734,735,776,775,1021,1022,1063,1062
638,735,736,777,776,1022,1023,1064,1063
639,736,737,778,777,1023,1024,1065,1064
640,737,738,779,778,1024,1025,1066,1065
641,739,740,781,780,1026,1027,1068,1067
642,740,741,782,781,1027,1028,1069,1068
643,741,742,783,782,1028,1029,1070,1069
644,742,743,784,783,1029,1030,1071,1070
645,743,744,785,784,1030,1031,1072,1071
646,744,745,786,785,1031,1032,1073,1072
647,745,746,787,786,1032,1033,1074,1073
648,746,747,788,787,1033,1034,1075,1074
649,747,748,789,788,1034,1035,1076,1075
650,748,749,790,789,1035,1036,1077,1076
651,749,750,791,790,1036,1037,1078,1077
652,750,751,792,791,1037,1038,1079,1078
653,751,752,793,792,1038,1039,1080,1079
654,752,753,794,793,1039,1040,1081,1080
655,753,754,795,794,1040,1041,1082,1081
656,754,755,796,795,1041,1042,1083,1082
657,755,756,797,796,1042,1043,1084,1083
658,756,757,798,797,1043,1044,1085,1084
659,757,758,799,798,1044,1045,1086,1085
660,758,759,800,799,1045,1046,1087,1086
661,759,760,801,800,1046,1047,1088,1087
662,760,761,802,801,1047,1048,1089,1088
663,761,762,803,802,1048,1049,1090,1089
664,762,763,804,803,1049,1050,1091,1090
665,763,764,805,804,1050,1051,1092,1091
666,764,765,806,805,1051,1052,1093,1092
667,765,766,807,806,1052,1053,1094,1093
668,766,767,808,807,1053,1054,1095,1094
669,767,768,809,808,1054,1055,1096,1095
670,768,769,810,809,1055,1056,1097,1096
671,769,770,811,810,1056,1057,1098,1097
672,770,771,812,811,1057,1058,1099,1098
673,771,772,813,812,1058,1059,1100,1099
674,772,773,814,813,1059,1060,1101,1100
675,773,774,815,814,1060,1061,1102,1101
676,774,775,816,815,1061,1062,1103,1102
677,775,776,817,816,1062,1063,1104,1103
678,776,777,818,817,1063,1064,1105,1104
679,777,778,819,818,1064,1065,1106,1105
680,778,779,820,819,1065,1066,1107,1106
681,780,781,822,821,1067,1068,1109,1108
682,781,782,823,822,1068,1069,1110,1109
683,782,783,824,823,1069,1070,1111,1110
684,783,784,825,824,1070,1071,1112,1111
685,784,785,826,825,1071,1072,1113,1112
686,785,786,827,826,1072,1073,1114,1113
687,786,787,828,827,1073,1074,1115,1114
688,787,788,829,828,1074,1075,1116,1115
689,788,789,830,829,1075,1076,1117,1116
690,789,790,831,830,1076,1077,1118,1117
691,790,791,832,831,1077,1078,1119,1118
692,791,792,833,832,1078,1079,1120,1119
693,792,793,834,833,1079,1080,1121,1120
694,793,794,835,834,1080,1081,1122,1121
695,794,795,836,835,1081,1082,1123,1122
696,795,796,837,836,1082,1083,1124,1123
697,796,797,838,837,1083,1084,1125,1124
698,797,798,839,838,1084,1085,1126,1125
699,798,799,840,839,1085,1086,1127,1126
700,799,800,841,840,1086,1087,1128,1127
701,800,801,842,841,1087,1088,1129,1128
702,801,802,843,842,1088,1089,1130,1129
703,802,803,844,843,1089,1090,1131,1130
704,803,804,845,844,1090,1091,1132,1131
705,804,805,846,845,1091,1092,1133,1132
706,805,806,847,846,1092,1093,1134,1133
707,806,807,848,847,1093,1094,1135,1134
708,807,808,849,848,1094,1095,1136,1135
709,808,809,850,849,1095,1096,1137,1136
710,809,810,851,850,1096,1097,1138,1137
711,810,811,852,851,1097,1098,1139,1138
712,811,812,853,852,1098,1099,1140,1139
713,812,813,854,853,1099,1100,1141,1140
714,813,814,855,854,1100,1101,1142,1141
715,814,815,856,855,1101,1102,1143,1142
716,815,816,857,856,1102,1103,1144,1143
717,816,817,858,857,1103,1104,1145,1144
718,817,818,859,858,1104,1105,1146,1145
719,818,819,860,859,1105,1106,1147,1146
720,819,820,861,860,1106,1107,1148,1147
721,862,863,904,903,1149,1150,1191,1190
722,863,864,905,904,1150,1151,1192,1191
723,864,865,906,905,1151,1152,1193,1192
724,865,866,907,906,1152,1153,1194,1193
725,866,867,908,907,1153,1154,1195,1194
726,867,868,909,908,1154,1155,1196,1195
727,868,869,910,909,1155,1156,1197,1196
728,869,870,911,910,1156,1157,1198,1197
729,870,871,912,911,1157,1158,1199,1198
730,871,872,913,912,1158,1159,1200,1199
731,872,873,914,913,1159,1160,1201,1200
732,873,874,915,914,1160,1161,1202,1201
733,874,875,916,915,1161,1162,1203,1202
734,875,876,917,916,1162,1163,1204,1203
735,876,877,918,917,1163,1164,1205,1204
736,877,878,919,918,1164,1165,1206,1205
737,878,879,920,919,1165,1166,1207,1206
738,879,880,921,920,1166,1167,1208,1207
739,880,881,922,921,1167,1168,1209,1208
740,881,882,923,922,1168,1169,1210,1209
741,882,883,924,923,1169,1170,1211,1210
742,883,884,925,924,1170,1171,1212,1211
743,884,885,926,925,1171,1172,1213,1212
744,885,886,927,926,1172,1173,1214,1213
745,886,887,928,927,1173,1174,1215,1214
746,887,888,929,928,1174,1175,1216,1215
747,888,889,930,929,1175,1176,1217,1216
748,889,890,931,930,1176,1177,1218,1217
749,890,891,932,931,1177,1178,1219,1218
750,891,892,933,932,1178,1179,1220,1219
751,892,893,934,933,1179,1180,1221,1220
752,893,894,935,934,1180,1181,1222,1221
753,894,895,936,935,1181,1182,1223,1222
754,895,896,937,936,1182,1183,1224,1223
755,896,897,938,937,1183,1184,1225,1224
756,897,898,939,938,1184,1185,1226,1225
757,898,899,940,939,1185,1186,1227,1226
758,899,900,941,940,1186,1187,1228,1227
759,900,901,942,941,1187,1188,1229,1228
760,901,902,943,942,1188,1189,1230,1229
761,903,904,945,944,1190,1191,1232,1231
762,904,905,946,945,1191,1192,1233,1232
763,905,906,947,946,1192,1193,1234,1233
764,906,907,948,947,1193,1194,1235,1234
765,907,908,949,948,1194,1195,1236,1235
766,908,909,950,949,1195,1196,1237,1236
767,909,910,951,950,1196,1197,1238,1237
768,910,911,952,951,1197,1198,1239,1238
769,911,912,953,952,1198,1199,1240,1239
770,912,913,954,953,1199,1200,1241,1240
771,913,914,955,954,1200,1201,1242,1241
772,914,915,956,955,1201,1202,1243,1242
773,915,916,957,956,1202,1203,1244,1243
774,916,917,958,957,1203,1204,1245,1244
775,917,918,959,958,1204,1205,1246,1245
776,918,919,960,959,1205,1206,1247,1246
777,919,920,961,960,1206,1207,1248,1247
778,920,921,962,961,1207,1208,1249,1248
779,921,922,963,962,1208,1209,1250,1249
780,922,923,964,963,1209,1210,1251,1250
781,923,924,965,964,1210,1211,1252,1251
782,924,925,966,965,1211,1212,1253,1252
783,925,926,967,966,1212,1213,1254,1253
784,926,927,968,967,1213,1214,1255,1254
785,927,928,969,968,1214,1215,1256,1255
786,928,929,970,969,1215,1216,1257,1256
787,929,930,971,970,1216,1217,1258,1257
788,930,931,972,971,1217,1218,1259,1258
789,931,932,973,972,1218,1219,1260,1259
790,932,933,974,973,1219,1220,1261,1260
791,933,934,975,974,1220,1221,1262,1261
792,934,935,976,975,1221,1222,1263,1262
793,935,936,977,976,1222,1223,1264,1263
794,936,937,978,977,1223,1224,1265,1264
795,937,938,979,978,1224,1225,1266,1265
796,938,939,980,979,1225,1226,1267,1266
797,939,940,981,980,1226,1227,1268,1267
798,940,941,982,981,1227,1228,1269,1268
799,941,942,983,982,1228,1229,1270,1269
800,942,943,984,983,1229,1230,1271,1270
801,944,945,986,985,1231,1232,1273,1272
802,945,946,987,986,1232,1233,1274,1273
803,946,947,988,987,1233,1234,1275,1274
804,947,948,989,988,1234,1235,1276,1275
805,948,949,990,989,1235,1236,1277,1276
806,949,950,991,990,1236,1237,1278,1277
807,950,951,992,991,1237,1238,1279,1278
808,951,952,993,992,1238,1239,1280,1279
809,952,953,994,993,1239,1240,1281,1280
810,953,954,995,994,1240,1241,1282,1281
811,954,955,996,995,1241,1242,1283,1282
812,955,956,997,996,1242,1243,1284,1283
813,956,957,998,997,1243,1244,1285,1284
814,957,958,999,998,1244,1245,1286,1285
815,958,959,1000,999,1245,1246,1287,1286
816,959,960,1001,1000,1246,1247,1288,1287
817,960,961,1002,1001,1247,1248,1289,1288
818,961,962,1003,1002,1248,1249,1290,1289
819,962,963,1004,1003,1249,1250,1291,1290
820,963,964,1005,1004,1250,1251,1292,1291
821,964,965,1006,1005,1251,1252,1293,1292
822,965,966,1007,1006,1252,1253,1294,1293
823,966,967,1008,1007,1253,1254,1295,1294
824,967,968,1009,1008,1254,1255,1296,1295
825,968,969,1010,1009,1255,1256,1297,1296
826,969,970,1011,1010,1256,1257,1298,1297
827,970,971,1012,1011,1257,1258,1299,1298
828,971,972,1013,1012,1258,1259,1300,1299
829,972,973,1014,1013,1259,1260,1301,1300
830,973,974,1015,1014,1260,1261,1302,1301
831,974,975,1016,1015,1261,1262,1303,1302
832,975,976,1017,1016,1262,1263,1304,1303
833,976,977,1018,1017,1263,1264,1305,1304
834,977,978,1019,1018,1264,1265,1306,1305
835,978,979,1020,1019,1265,1266,1307,1306
836,979,980,1021,1020,1266,1267,1308,1307
837,980,981,1022,1021,1267,1268,1309,1308
838,981,982,1023,1022,1268,1269,1310,1309
839,982,983,1024,1023,1269,1270,1311,1310
840,983,984,1025,1024,1270,1271,1312,1311
841,985,986,1027,1026,1272,1273,1314,1313
842,986,987,1028,1027,1273,1274,1315,1314
843,987,988,1029,1028,1274,1275,1316,1315
844,988,989,1030,1029,1275,1276,1317,1316
845,989,990,1031,1030,1276,1277,1318,1317
846,990,991,1032,1031,1277,1278,1319,1318
847,991,992,1033,1032,1278,1279,1320,1319
848,992,993,1034,1033,1279,1280,1321,1320
849,993,994,1035,1034,1280,1281,1322,1321
850,994,995,1036,1035,1281,1282,1323,1322
851,995,996,1037,1036,1282,1283,1324,1323
852,996,997,1038,1037,1283,1284,1325,1324
853,997,998,1039,1038,1284,1285,1326,1325
854,998,999,1040,1039,1285,1286,1327,1326
855,999,1000,1041,1040,1286,1287,1328,1327
856,1000,1001,1042,1041,1287,1288,1329,1328
857,1001,1002,1043,1042,1288,1289,1330,1329
858,1002,1003,1044,1043,1289,1290,1331,1330
859,1003,1004,1045,1044,1290,1291,1332,1331
860,1004,1005,1046,1045,1291,1292,1333,1332
861,1005,1006,1047,1046,1292,1293,1334,1333
862,1006,1007,1048,1047,1293,1294,1335,1334
863,1007,1008,1049,1048,1294,1295,1336,1335
864,1008,1009,1050,1049,1295,1296,1337,1336
865,1009,1010,1051,1050,1296,1297,1338,1337
866,1010,1011,1052,1051,1297,1298,1339,1338
867,1011,1012,1053,1052,1298,1299,1340,1339
868,1012,1013,1054,1053,1299,1300,1341,1340
869,1013,1014,1055,1054,1300,1301,1342,1341
870,1014,1015,1056,1055,1301,1302,1343,1342
871,1015,1016,1057,1056,1302,1303,1344,1343
872,1016,1017,1058,1057,1303,1304,1345,1344
873,1017,1018,1059,1058,1304,1305,1346,1345
874,1018,1019,1060,1059,1305,1306,1347,1346
875,1019,1020,1061,1060,1306,1307,1348,1347
876,1020,1021,1062,1061,1307,1308,1349,1348
877,1021,1022,1063,1062,1308,1309,1350,1349
878,1022,1023,1064,1063,1309,1310,1351,1350
879,1023,1024,1065,1064,1310,1311,1352,1351
880,1024,1025,1066,1065,1311,1312,1353,1352
881,1026,1027,1068,1067,1313,1314,1355,1354
882,1027,1028,1069,1068,1314,1315,1356,1355
883,1028,1029,1070,1069,1315,1316,1357,1356
884,1029,1030,1071,1070,1316,1317,1358,1357
885,1030,1031,1072,1071,1317,1318,1359,1358
886,1031,1032,1073,1072,1318,1319,1360,1359
887,1032,1033,1074,1073,1319,1320,1361,1360
888,1033,1034,1075,1074,1320,1321,1362,1361
889,1034,1035,1076,1075,1321,1322,1363,1362
890,1035,1036,1077,1076,1322,1323,1364,1363
891,1036,1037,1078,1077,1323,1324,1365,1364
892,1037,1038,1079,1078,1324,1325,1366,1365
893,1038,1039,1080,1079,1325,1326,1367,1366
894,1039,1040,1081,1080,1326,1327,1368,1367
895,1040,1041,1082,1081,1327,1328,1369,1368
896,1041,1042,1083,1082,1328,1329,1370,1369
897,1042,1043,1084,1083,1329,1330,1371,1370
898,1043,1044,1085,1084,1330,1331,1372,1371
899,1044,1045,1086,1085,1331,1332,1373,1372
900,1045,1046,1087,1086,1332,1333,1374,1373
901,1046,1047,1088,1087,1333,1334,1375,1374
902,1047,1048,1089,1088,1334,1335,1376,1375
903,1048,1049,1090,1089,1335,1336,1377,1376
904,1049,1050,1091,1090,1336,1337,1378,1377
905,1050,1051,1092,1091,1337,1338,1379,1378
906,1051,1052,1093,1092,1338,1339,1380,1379
907,1052,1053,1094,1093,1339,1340,1381,1380
908,1053,1054,1095,1094,1340,1341,1382,1381
909,1054,1055,1096,1095,1341,1342,1383,1382
910,1055,1056,1097,1096,1342,1343,1384,1383
911,1056,1057,1098,1097,1343,1344,1385,1384
912,1057,1058,1099,1098,1344,1345,1386,1385
913,1058,1059,1100,1099,1345,1346,1387,1386
914,1059,1060,1101,1100,1346,1347,1388,1387
915,1060,1061,1102,1101,1347,1348,1389,1388
916,1061,1062,1103,1102,1348,1349,1390,1389
917,1062,1063,1104,1103,1349,1350,1391,1390
918,1063,1064,1105,1104,1350,1351,1392,1391
919,1064,1065,1106,1105,1351,1352,1393,1392
920,1065,1066,1107,1106,1352,1353,1394,1393
921,1067,1068,1109,1108,1354,1355,1396,1395
922,1068,1069,1110,1109,1355,1356,1397,1396
923,1069,1070,1111,1110,1356,1357,1398,1397
924,1070,1071,1112,1111,1357,1358,1399,1398
925,1071,1072,1113,1112,1358,1359,1400,1399
926,1072,1073,1114,1113,1359,1360,1401,1400
927,1073,1074,1115,1114,1360,1361,1402,1401
928,1074,1075,1116,1115,1361,1362,1403,1402
929,1075,1076,1117,1116,1362,1363,1404,1403
930,1076,1077,1118,1117,1363,1364,1405,1404
931,1077,1078,1119,1118,1364,1365,1406,1405
932,1078,1079,1120,1119,1365,1366,1407,1406
933,1079,1080,1121,1120,1366,1367,1408,1407
934,1080,1081,1122,1121,1367,1368,1409,1408
935,1081,1082,1123,1122,1368,1369,1410,1409
936,1082,1083,1124,1123,1369,1370,1411,1410
937,1083,1084,1125,1124,1370,1371,1412,1411
938,1084,1085,1126,1125,1371,1372,1413,1412
939,1085,1086,1127,1126,1372,1373,1414,1413
940,1086,1087,1128,1127,1373,1374,1415,1414
941,1087,1088,1129,1128,1374,1375,1416,1415
942,1088,1089,1130,1129,1375,1376,1417,1416
943,1089,1090,1131,1130,1376,1377,1418,1417
944,1090,1091,1132,1131,1377,1378,1419,1418
945,1091,1092,1133,1132,1378,1379,1420,1419
946,1092,1093,1134,1133,1379,1380,1421,1420
947,1093,1094,1135,1134,1380,1381,1422,1421
948,1094,1095,1136,1135,1381,1382,1423,1422
949,1095,1096,1137,1136,1382,1383,1424,1423
950,1096,1097,1138,1137,1383,1384,1425,1424
951,1097,1098,1139,1138,1384,1385,1426,1425
952,1098,1099,1140,1139,1385,1386,1427,1426
953,1099,1100,1141,1140,1386,1387,1428,1427
954,1100,1101,1142,1141,1387,1388,1429,1428
955,1101,1102,1143,1142,1388,1389,1430,1429
956,1102,1103,1144,1143,1389,1390,1431,1430
957,1103,1104,1145,1144,1390,1391,1432,1431
958,1104,1105,1146,1145,1391,1392,1433,1432
959,1105,1106,1147,1146,1392,1393,1434,1433
960,1106,1107,1148,1147,1393,1394,1435,1434
961,1149,1150,1191,1190,1436,1437,1478,1477
962,1150,1151,1192,1191,1437,1438,1479,1478
963,1151,1152,1193,1192,1438,1439,1480,1479
964,1152,1153,1194,1193,1439,1440,1481,1480
965,1153,1154,1195,1194,1440,1441,1482,1481
966,1154,1155,1196,1195,1441,1442,1483,1482
967,1155,1156,1197,1196,1442,1443,1484,1483
968,1156,1157,1198,1197,1443,1444,1485,1484
969,1157,1158,1199,1198,1444,1445,1486,1485
970,1158,1159,1200,1199,1445,1446,1487,1486
971,1159,1160,1201,1200,1446,1447,1488,1487
972,1160,1161,1202,1201,1447,1448,1489,1488
973,1161,1162,1203,1202,1448,1449,1490,1489
974,1162,1163,1204,1203,1449,1450,1491,1490
975,1163,1164,1205,1204,1450,1451,1492,1491
976,1164,1165,1206,1205,1451,1452,1493,1492
977,1165,1166,1207,1206,1452,1453,1494,1493
978,1166,1167,1208,1207,1453,1454,1495,1494
979,1167,1168,1209,1208,1454,1455,1496,1495
980,1168,1169,1210,1209,1455,1456,1497,1496
981,1169,1170,1211,1210,1456,1457,1498,1497
982,1170,1171,1212,1211,1457,1458,1499,1498
983,1171,1172,1213,1212,1458,1459,1500,1499
984,1172,1173,1214,1213,1459,1460,1501,1500
985,1173,1174,1215,1214,1460,1461,1502,1501
986,1174,1175,1216,1215,1461,1462,1503,1502
987,1175,1176,1217,1216,1462,1463,1504,1503
988,1176,1177,1218,1217,1463,1464,1505,1504
989,1177,1178,1219,1218,1464,1465,1506,1505
990,1178,1179,1220,1219,1465,1466,1507,1506
991,1179,1180,1221,1220,1466,1467,1508,1507
992,1180,1181,1222,1221,1467,1468,1509,1508
993,1181,1182,1223,1222,1468,1469,1510,1509
994,1182,1183,1224,1223,1469,1470,1511,1510
995,1183,1184,1225,1224,1470,1471,1512,1511
996,1184,1185,1226,1225,1471,1472,1513,1512
997,1185,1186,1227,1226,1472,1473,1514,1513
998,1186,1187,1228,1227,1473,1474,1515,1514
999,1187,1188,1229,1228,1474,1475,1516,1515
1000,1188,1189,1230,1229,1475,1476,1517,1516
1001,1190,1191,1232,1231,1477,1478,1519,1518
1002,1191,1192,1233,1232,1478,1479,1520,1519
1003,1192,1193,1234,1233,1479,1480,1521,1520
1004,1193,1194,1235,1234,1480,1481,1522,1521
1005,1194,1195,1236,1235,1481,1482,1523,1522
1006,1195,1196,1237,1236,1482,1483,1524,1523
1007,1196,1197,1238,1237,1483,1484,1525,1524
1008,1197,1198,1239,1238,1484,1485,1526,1525
1009,1198,1199,1240,1239,1485,1486,1527,1526
1010,1199,1200,1241,1240,1486,1487,1528,1527
1011,1200,1201,1242,1241,1487,1488,1529,1528
1012,1201,1202,1243,1242,1488,1489,1530,1529
1013,1202,1203,1244,1243,1489,1490,1531,1530
1014,1203,1204,1245,1244,1490,1491,1532,1531
1015,1204,1205,1246,1245,1491,1492,1533,1532
1016,1205,1206,1247,1246,1492,1493,1534,1533
1017,1206,1207,1248,1247,1493,1494,1535,1534
1018,1207,1208,1249,1248,1494,1495,1536,1535
1019,1208,1209,1250,1249,1495,1496,1537,1536
1020,1209,1210,1251,1250,1496,1497,1538,1537
1021,1210,1211,1252,1251,1497,1498,1539,1538
1022,1211,1212,1253,1252,1498,1499,1540,1539
1023,1212,1213,1254,1253,1499,1500,1541,1540
1024,1213,1214,1255,1254,1500,1501,1542,1541
1025,1214,1215,1256,1255,1501,1502,1543,1542
1026,1215,1216,1257,1256,1502,1503,1544,1543
1027,1216,1217,1258,1257,1503,1504,1545,1544
1028,1217,1218,1259,1258,1504,1505,1546,1545
1029,1218,1219,1260,1259,1505,1506,1547,1546
1030,1219,1220,1261,1260,1506,1507,1548,1547
1031,1220,1221,1262,1261,1507,1508,1549,1548
1032,1221,1222,1263,1262,1508,1509,1550,1549
1033,1222,1223,1264,1263,1509,1510,1551,1550
1034,1223,1224,1265,1264,1510,1511,1552,1551
1035,1224,1225,1266,1265,1511,1512,1553,1552
1036,1225,1226,1267,1266,1512,1513,1554,1553
1037,1226,1227,1268,1267,1513,1514,1555,1554
1038,1227,1228,1269,1268,1514,1515,1556,1555
1039,1228,1229,1270,1269,1515,1516,1557,1556
1040,1229,1230,1271,1270,1516,1517,1558,1557
1041,1231,1232,1273,1272,1518,1519,1560,1559
1042,1232,1233,1274,1273,1519,1520,1561,1560
1043,1233,1234,1275,1274,1520,1521,1562,1561
1044,1234,1235,1276,1275,1521,1522,1563,1562
1045,1235,1236,1277,1276,1522,1523,1564,1563
1046,1236,1237,1278,1277,1523,1524,1565,1564
1047,1237,1238,1279,1278,1524,1525,1566,1565
1048,1238,1239,1280,1279,1525,1526,1567,1566
1049,1239,1240,1281,1280,1526,1527,1568,1567
1050,1240,1241,1282,1281,1527,1528,1569,1568
1051,1241,1242,1283,1282,1528,1529,1570,1569
1052,1242,1243,1284,1283,1529,1530,1571,1570
1053,1243,1244,1285,1284,1530,1531,1572,1571
1054,1244,1245,1286,1285,1531,1532,1573,1572
1055,1245,1246,1287,1286,1532,1533,1574,1573
1056,1246,1247,1288,1287,1533,1534,1575,1574
1057,1247,1248,1289,1288,1534,1535,1576,1575
1058,1248,1249,1290,1289,1535,1536,1577,1576
1059,1249,1250,1291,1290,1536,1537,1578,1577
1060,1250,1251,1292,1291,1537,1538,1579,1578
1061,1251,1252,1293,1292,1538,1539,1580,1579
1062,1252,1253,1294,1293,1539,1540,1581,1580
1063,1253,1254,1295,1294,1540,1541,1582,1581
1064,1254,1255,1296,1295,1541,1542,1583,1582
1065,1255,1256,1297,1296,1542,1543,1584,1583
1066,1256,1257,1298,1297,1543,1544,1585,1584
1067,1257,1258,1299,1298,1544,1545,1586,1585
1068,1258,1259,1300,1299,1545,1546,1587,1586
1069,1259,1260,1301,1300,1546,1547,1588,1587
1070,1260,1261,1302,1301,1547,1548,1589,1588
1071,1261,1262,1303,1302,1548,1549,1590,1589
1072,1262,1263,1304,1303,1549,1550,1591,1590
1073,1263,1264,1305,1304,1550,1551,1592,1591
1074,1264,1265,1306,1305,1551,1552,1593,1592
1075,1265,1266,1307,1306,1552,1553,1594,1593
1076,1266,1267,1308,1307,1553,1554,1595,1594
1077,1267,1268,1309,1308,1554,1555,1596,1595
1078,1268,1269,1310,1309,1555,1556,1597,1596
1079,1269,1270,1311,1310,1556,1557,1598,1597
1080,1270,1271,1312,1311,1557,1558,1599,1598
1081,1272,1273,1314,1313,1559,1560,1601,1600
1082,1273,1274,1315,1314,1560,1561,1602,1601
1083,1274,1275,1316,1315,1561,1562,1603,1602
1084,1275,1276,1317,1316,1562,1563,1604,1603
1085,1276,1277,1318,1317,1563,1564,1605,1604
1086,1277,1278,1319,1318,1564,1565,1606,1605
1087,1278,1279,1320,1319,1565,1566,1607,1606
1088,1279,1280,1321,1320,1566,1567,1608,1607
1089,1280,1281,1322,1321,1567,1568,1609,1608
1090,1281,1282,1323,1322,1568,1569,1610,1609
1091,1282,1283,1324,1323,1569,1570,1611,1610
1092,1283,1284,1325,1324,1570,1571,1612,1611
1093,1284,1285,1326,1325,1571,1572,1613,1612
1094,1285,1286,1327,1326,1572,1573,1614,1613
1095,1286,1287,1328,1327,1573,1574,1615,1614
1096,1287,1288,1329,1328,1574,1575,1616,1615
1097,1288,1289,1330,1329,1575,1576,1617,1616
1098,1289,1290,1331,1330,1576,1577,1618,1617
1099,1290,1291,1332,1331,1577,1578,1619,1618
1100,1291,1292,1333,1332,1578,1579,1620,1619
1101,1292,1293,1334,1333,1579,1580,1621,1620
1102,1293,1294,1335,1334,1580,1581,1622,1621
1103,1294,1295,1336,1335,1581,1582,1623,1622
1104,1295,1296,1337,1336,1582,1583,1624,1623
1105,1296,1297,1338,1337,1583,1584,1625,1624
1106,1297,1298,1339,1338,1584,1585,1626,1625
1107,1298,1299,1340,1339,1585,1586,1627,1626
1108,1299,1300,1341,1340,1586,1587,1628,1627
1109,1300,1301,1342,1341,1587,1588,1629,1628
1110,1301,1302,1343,1342,1588,1589,1630,1629
1111,1302,1303,1344,1343,1589,1590,1631,1630
1112,1303,1304,1345,1344,1590,1591,1632,1631
1113,1304,1305,1346,1345,1591,1592,1633,1632
1114,1305,1306,1347,1346,1592,1593,1634,1633
1115,1306,1307,1348,1347,1593,1594,1635,1634
1116,1307,1308,1349,1348,1594,1595,1636,1635
1117,1308,1309,1350,1349,1595,1596,1637,1636
1118,1309,1310,1351,1350,1596,1597,1638,1637
1119,1310,1311,1352,1351,1597,1598,1639,1638
1120,1311,1312,1353,1352,1598,1599,1640,1639
1121,1313,1314,1355,1354,1600,1601,1642,1641
1122,1314,1315,1356,1355,1601,1602,1643,1642
1123,1315,1316,1357,1356,1602,1603,1644,1643
1124,1316,1317,1358,1357,1603,1604,1645,1644
1125,1317,1318,1359,1358,1604,1605,1646,1645
1126,1318,1319,1360,1359,1605,1606,1647,1646
1127,1319,1320,1361,1360,1606,1607,1648,1647
1128,1320,1321,1362,1361,1607,1608,1649,1648
1129,1321,1322,1363,1362,1608,1609,1650,1649
1130,1322,1323,1364,1363,1609,1610,1651,1650
1131,1323,1324,1365,1364,1610,1611,1652,1651
1132,1324,1325,1366,1365,1611,1612,1653,1652
1133,1325,1326,1367,1366,1612,1613,1654,1653
1134,1326,1327,1368,1367,1613,1614,1655,1654
1135,1327,1328,1369,1368,1614,1615,1656,1655
1136,1328,1329,1370,1369,1615,1616,1657,1656
1137,1329,1330,1371,1370,1616,1617,1658,1657
1138,1330,1331,1372,1371,1617,1618,1659,1658
1139,1331,1332,1373,1372,1618,1619,1660,1659
1140,1332,1333,1374,1373,1619,1620,1661,1660
1141,1333,1334,1375,1374,1620,1621,1662,1661
1142,1334,1335,1376,1375,1621,1622,1663,1662
1143,1335,1336,1377,1376,1622,1623,1664,1663
1144,1336,1337,1378,1377,1623,1624,1665,1664
1145,1337,1338,1379,1378,1624,1625,1666,1665
1146,1338,1339,1380,1379,1625,1626,1667,1666
1147,1339,1340,1381,1380,1626,1627,1668,1667
1148,1340,1341,1382,1381,1627,1628,1669,1668
1149,1341,1342,1383,1382,1628,1629,1670,1669
1150,1342,1343,1384,1383,1629,1630,1671,1670
1151,1343,1344,1385,1384,1630,1631,1672,1671
1152,1344,1345,1386,1385,1631,1632,1673,1672
1153,1345,1346,1387,1386,1632,1633,1674,1673
1154,1346,1347,1388,1387,1633,1634,1675,1674
1155,1347,1348,1389,1388,1634,1635,1676,1675
1156,1348,1349,1390,1389,1635,1636,1677,1676
1157,1349,1350,1391,1390,1636,1637,1678,1677
1158,1350,1351,1392,1391,1637,1638,1679,1678
1159,1351,1352,1393,1392,1638,1639,1680,1679
1160,1352,1353,1394,1393,1639,1640,1681,1680
1161,1354,1355,1396,1395,1641,1642,1683,1682
1162,1355,1356,1397,1396,1642,1643,1684,1683
1163,1356,1357,1398,1397,1643,1644,1685,1684
1164,1357,1358,1399,1398,1644,1645,1686,1685
1165,1358,1359,1400,1399,1645,1646,1687,1686
1166,1359,1360,1401,1400,1646,1647,1688,1687
1167,1360,1361,1402,1401,1647,1648,1689,1688
1168,1361,1362,1403,1402,1648,1649,1690,1689
1169,1362,1363,1404,1403,1649,1650,1691,1690
1170,1363,1364,1405,1404,1650,1651,1692,1691
1171,1364,1365,1406,1405,1651,1652,1693,1692
1172,1365,1366,1407,1406,1652,1653,1694,1693
1173,1366,1367,1408,1407,1653,1654,1695,1694
1174,1367,1368,1409,1408,1654,1655,1696,1695
1175,1368,1369,1410,1409,1655,1656,1697,1696
1176,1369,1370,1411,1410,1656,1657,1698,1697
1177,1370,1371,1412,1411,1657,1658,1699,1698
1178,1371,1372,1413,1412,1658,1659,1700,1699
1179,1372,1373,1414,1413,1659,1660,1701,1700
1180,1373,1374,1415,1414,1660,1661,1702,1701
1181,1374,1375,1416,1415,1661,1662,1703,1702
1182,1375,1376,1417,1416,1662,1663,1704,1703
1183,1376,1377,1418,1417,1663,1664,1705,1704
1184,1377,1378,1419,1418,1664,1665,1706,1705
1185,1378,1379,1420,1419,1665,1666,1707,1706
1186,1379,1380,1421,1420,1666,1667,1708,1707
1187,1380,1381,1422,1421,1667,1668,1709,1708
1188,1381,1382,1423,1422,1668,1669,1710,1709
1189,1382,1383,1424,1423,1669,1670,1711,1710
1190,1383,1384,1425,1424,1670,1671,1712,1711
1191,1384,1385,1426,1425,1671,1672,1713,1712
1192,1385,1386,1427,1426,1672,1673,1714,1713
1193,1386,1387,1428,1427,1673,1674,1715,1714
1194,1387,1388,1429,1428,1674,1675,1716,1715
1195,1388,1389,1430,1429,1675,1676,1717,1716
1196,1389,1390,1431,1430,1676,1677,1718,1717
1197,1390,1391,1432,1431,1677,1678,1719,1718
1198,1391,1392,1433,1432,1678,1679,1720,1719
1199,1392,1393,1434,1433,1679,1680,1721,1720
1200,1393,1394,1435,1434,1680,1681,1722,1721
1201,1436,1437,1478,1477,1723,1724,1765,1764
1202,1437,1438,1479,1478,1724,1725,1766,1765
1203,1438,1439,1480,1479,1725,1726,1767,1766
1204,1439,1440,1481,1480,1726,1727,1768,1767
1205,1440,1441,1482,1481,1727,1728,1769,1768
1206,1441,1442,1483,1482,1728,1729,1770,1769
1207,1442,1443,1484,1483,1729,1730,1771,1770
1208,1443,1444,1485,1484,1730,1731,1772,1771
1209,1444,1445,1486,1485,1731,1732,1773,1772
1210,1445,1446,1487,1486,1732,1733,1774,1773
1211,1446,1447,1488,1487,1733,1734,1775,1774
1212,1447,1448,1489,1488,1734,1735,1776,1775
1213,1448,1449,1490,1489,1735,1736,1777,1776
1214,1449,1450,1491,1490,1736,1737,1778,1777
1215,1450,1451,1492,1491,1737,1738,1779,1778
1216,1451,1452,1493,1492,1738,1739,1780,1779
1217,1452,1453,1494,1493,1739,1740,1781,1780
1218,1453,1454,1495,1494,1740,1741,1782,1781
1219,1454,1455,1496,1495,1741,1742,1783,1782
1220,1455,1456,1497,1496,1742,1743,1784,1783
1221,1456,1457,1498,1497,1743,1744,1785,1784
1222,1457,1458,1499,1498,1744,1745,1786,1785
1223,1458,1459,1500,1499,1745,1746,1787,1786
1224,1459,1460,1501,1500,1746,1747,1788,1787
1225,1460,1461,1502,1501,1747,1748,1789,1788
1226,1461,1462,1503,1502,1748,1749,1790,1789
1227,1462,1463,1504,1503,1749,1750,1791,1790
1228,1463,1464,1505,1504,1750,1751,1792,1791
1229,1464,1465,1506,1505,1751,1752,1793,1792
1230,1465,1466,1507,1506,1752,1753,1794,1793
1231,1466,1467,1508,1507,1753,1754,1795,1794
1232,1467,1468,1509,1508,1754,1755,1796,1795
1233,1468,1469,1510,1509,1755,1756,1797,1796
1234,1469,1470,1511,1510,1756,1757,1798,1797
1235,1470,1471,1512,1511,1757,1758,1799,1798
1236,1471,1472,1513,1512,1758,1759,1800,1799
1237,1472,1473,1514,1513,1759,1760,1801,1800
1238,1473,1474,1515,1514,1760,1761,1802,1801
1239,1474,1475,1516,1515,1761,1762,1803,1802
1240,1475,1476,1517,1516,1762,1763,1804,1803
1241,1477,1478,1519,1518,1764,1765,1806,1805
1242,1478,1479,1520,1519,1765,1766,1807,1806
1243,1479,1480,1521,1520,1766,1767,1808,1807
1244,1480,1481,1522,1521,1767,1768,1809,1808
1245,1481,1482,1523,1522,1768,1769,1810,1809
1246,1482,1483,1524,1523,1769,1770,1811,1810
1247,1483,1484,1525,1524,1770,1771,1812,1811
1248,1484,1485,1526,1525,1771,1772,1813,1812
1249,1485,1486,1527,1526,1772,1773,1814,1813
1250,1486,1487,1528,1527,1773,1774,1815,1814
1251,1487,1488,1529,1528,1774,1775,1816,1815
1252,1488,1489,1530,1529,1775,1776,1817,1816
1253,1489,1490,1531,1530,1776,1777,1818,1817
1254,1490,1491,1532,1531,1777,1778,1819,1818
1255,1491,1492,1533,1532,1778,1779,1820,1819
1256,1492,1493,1534,1533,1779,1780,1821,1820
1257,1493,1494,1535,1534,1780,1781,1822,1821
1258,1494,1495,1536,1535,1781,1782,1823,1822
1259,1495,1496,1537,1536,1782,1783,1824,1823
1260,1496,1497,1538,1537,1783,1784,1825,1824
1261,1497,1498,1539,1538,1784,1785,1826,1825
1262,1498,1499,1540,1539,1785,1786,1827,1826
1263,1499,1500,1541,1540,1786,1787,1828,1827
1264,1500,1501,1542,1541,1787,1788,1829,1828
1265,1501,1502,1543,1542,1788,1789,1830,1829
1266,1502,1503,1544,1543,1789,1790,1831,1830
1267,1503,1504,1545,1544,1790,1791,1832,1831
1268,1504,1505,1546,1545,1791,1792,1833,1832
1269,1505,1506,1547,1546,1792,1793,1834,1833
1270,1506,1507,1548,1547,1793,1794,1835,1834
1271,1507,1508,1549,1548,1794,1795,1836,1835
1272,1508,1509,1550,1549,1795,1796,1837,1836
1273,1509,1510,1551,1550,1796,1797,1838,1837
1274,1510,1511,1552,1551,1797,1798,1839,1838
1275,1511,1512,1553,1552,1798,1799,1840,1839
1276,1512,1513,1554,1553,1799,1800,1841,1840
1277,1513,1514,1555,1554,1800,1801,1842,1841
1278,1514,1515,1556,1555,1801,1802,1843,1842
1279,1515,1516,1557,1556,1802,1803,1844,1843
1280,1516,1517,1558,1557,1803,1804,1845,1844
1281,1518,1519,1560,1559,1805,1806,1847,1846
1282,1519,1520,1561,1560,1806,1807,1848,1847
1283,1520,1521,1562,1561,1807,1808,1849,1848
1284,1521,1522,1563,1562,1808,1809,1850,1849
1285,1522,1523,1564,1563,1809,1810,1851,1850
1286,1523,1524,1565,1564,1810,1811,1852,1851
1287,1524,1525,1566,1565,1811,1812,1853,1852
1288,1525,1526,1567,1566,1812,1813,1854,1853
1289,1526,1527,1568,1567,1813,1814,1855,1854
1290,1527,1528,1569,1568,1814,1815,1856,1855
1291,1528,1529,1570,1569,1815,1816,1857,1856
1292,1529,1530,1571,1570,1816,1817,1858,1857
1293,1530,1531,1572,1571,1817,1818,1859,1858
1294,1531,1532,1573,1572,1818,1819,1860,1859
1295,1532,1533,1574,1573,1819,1820,1861,1860
1296,1533,1534,1575,1574,1820,1821,1862,1861
1297,1534,1535,1576,1575,1821,1822,1863,1862
1298,1535,1536,1577,1576,1822,1823,1864,1863
1299,1536,1537,1578,1577,1823,1824,1865,1864
1300,1537,1538,1579,1578,1824,1825,1866,1865
1301,1538,1539,1580,1579,1825,1826,1867,1866
1302,1539,1540,1581,1580,1826,1827,1868,1867
1303,1540,1541,1582,1581,1827,1828,1869,1868
1304,1541,1542,1583,1582,1828,1829,1870,1869
1305,1542,1543,1584,1583,1829,1830,1871,1870
1306,1543,1544,1585,1584,1830,1831,1872,1871
1307,1544,1545,1586,1585,1831,1832,1873,1872
1308,1545,1546,1587,1586,1832,1833,1874,1873
1309,1546,1547,1588,1587,1833,1834,1875,1874
1310,1547,1548,1589,1588,1834,1835,1876,1875
1311,1548,1549,1590,1589,1835,1836,1877,1876
1312,1549,1550,1591,1590,1836,1837,1878,1877
1313,1550,1551,1592,1591,1837,1838,1879,1878
1314,1551,1552,1593,1592,1838,1839,1880,1879
1315,1552,1553,1594,1593,1839,1840,1881,1880
1316,1553,1554,1595,1594,1840,1841,1882,1881
1317,1554,1555,1596,1595,1841,1842,1883,1882
1318,1555,1556,1597,1596,1842,1843,1884,1883
1319,1556,1557,1598,1597,1843,1844,1885,1884
1320,1557,1558,1599,1598,1844,1845,1886,1885
1321,1559,1560,1601,1600,1846,1847,1888,1887
1322,1560,1561,1602,1601,1847,1848,1889,1888
1323,1561,1562,1603,1602,1848,1849,1890,1889
1324,1562,1563,1604,1603,1849,1850,1891,1890
1325,1563,1564,1605,1604,1850,1851,1892,1891
1326,1564,1565,1606,1605,1851,1852,1893,1892
1327,1565,1566,1607,1606,1852,1853,1894,1893
1328,1566,1567,1608,1607,1853,1854,1895,1894
1329,1567,1568,1609,1608,1854,1855,1896,1895
1330,1568,1569,1610,1609,1855,1856,1897,1896
1331,1569,1570,1611,1610,1856,1857,1898,1897
1332,1570,1571,1612,1611,1857,1858,1899,1898
1333,1571,1572,1613,1612,1858,1859,1900,1899
1334,1572,1573,1614,1613,1859,1860,1901,1900
1335,1573,1574,1615,1614,1860,1861,1902,1901
1336,1574,1575,1616,1615,1861,1862,1903,1902
1337,1575,1576,1617,1616,1862,1863,1904,1903
1338,1576,1577,1618,1617,1863,1864,1905,1904
1339,1577,1578,1619,1618,1864,1865,1906,1905
1340,1578,1579,1620,1619,1865,1866,1907,1906
1341,1579,1580,1621,1620,1866,1867,1908,1907
1342,1580,1581,1622,1621,1867,1868,1909,1908
1343,1581,1582,1623,1622,1868,1869,1910,1909
1344,1582,1583,1624,1623,1869,1870,1911,1910
1345,1583,1584,1625,1624,1870,1871,1912,1911
1346,1584,1585,1626,1625,1871,1872,1913,1912
1347,1585,1586,1627,1626,1872,1873,1914,1913
1348,1586,1587,1628,1627,1873,1874,1915,1914
1349,1587,1588,1629,1628,1874,1875,1916,1915
1350,1588,1589,1630,1629,1875,1876,1917,1916
1351,1589,1590,1631,1630,1876,1877,1918,1917
1352,1590,1591,1632,1631,1877,1878,1919,1918
1353,1591,1592,1633,1632,1878,1879,1920,1919
1354,1592,1593,1634,1633,1879,1880,1921,1920
1355,1593,1594,1635,1634,1880,1881,1922,1921
1356,1594,1595,1636,1635,1881,1882,1923,1922
1357,1595,1596,1637,1636,1882,1883,1924,1923
1358,1596,1597,1638,1637,1883,1884,1925,1924
1359,1597,1598,1639,1638,1884,1885,1926,1925
1360,1598,1599,1640,1639,1885,1886,1927,1926
1361,1600,1601,1642,1641,1887,1888,1929,1928
1362,1601,1602,1643,1642,1888,1889,1930,1929
1363,1602,1603,1644,1643,1889,1890,1931,1930
1364,1603,1604,1645,1644,1890,1891,1932,1931
1365,1604,1605,1646,1645,1891,1892,1933,1932
1366,1605,1606,1647,1646,1892,1893,1934,1933
1367,1606,1607,1648,1647,1893,1894,1935,1934
1368,1607,1608,1649,1648,1894,1895,1936,1935
1369,1608,1609,1650,1649,1895,1896,1937,1936
1370,1609,1610,1651,1650,1896,1897,1938,1937
1371,1610,1611,1652,1651,1897,1898,1939,1938
1372,1611,1612,1653,1652,1898,1899,1940,1939
1373,1612,1613,1654,1653,1899,1900,1941,1940
1374,1613,1614,1655,1654,1900,1901,1942,1941
1375,1614,1615,1656,1655,1901,1902,1943,1942
1376,1615,1616,1657,1656,1902,1903,1944,1943
1377,1616,1617,1658,1657,1903,1904,1945,1944
1378,1617,1618,1659,1658,1904,1905,1946,1945
1379,1618,1619,1660,1659,1905,1906,1947,1946
1380,1619,1620,1661,1660,1906,1907,1948,1947
1381,1620,1621,1662,1661,1907,1908,1949,1948
1382,1621,1622,1663,1662,1908,1909,1950,1949
1383,1622,1623,1664,1663,1909,1910,1951,1950
1384,1623,1624,1665,1664,1910,1911,1952,1951
1385,1624,1625,1666,1665,1911,1912,1953,1952
1386,1625,1626,1667,1666,1912,1913,1954,1953
1387,1626,1627,1668,1667,1913,1914,1955,1954
1388,1627,1628,1669,1668,1914,1915,1956,1955
1389,1628,1629,1670,1669,1915,1916,1957,1956
1390,1629,1630,1671,1670,1916,1917,1958,1957
1391,1630,1631,1672,1671,1917,1918,1959,1958
1392,1631,1632,1673,1672,1918,1919,1960,1959
1393,1632,1633,1674,1673,1919,1920,1961,1960
1394,1633,1634,1675,1674,1920,1921,1962,1961
1395,1634,1635,1676,1675,1921,1922,1963,1962
1396,1635,1636,1677,1676,1922,1923,1964,1963
1397,1636,1637,1678,1677,1923,1924,1965,1964
1398,1637,1638,1679,1678,1924,1925,1966,1965
1399,1638,1639,1680,1679,1925,1926,1967,1966
1400,1639,1640,1681,1680,1926,1927,1968,1967
1401,1641,1642,1683,1682,1928,1929,1970,1969
1402,1642,1643,1684,1683,1929,1930,1971,1970
1403,1643,1644,1685,1684,1930,1931,1972,1971
1404,1644,1645,1686,1685,1931,1932,1973,1972
1405,1645,1646,1687,1686,1932,1933,1974,1973
1406,1646,1647,1688,1687,1933,1934,1975,1974
1407,1647,1648,1689,1688,1934,1935,1976,1975
1408,1648,1649,1690,1689,1935,1936,1977,1976
1409,1649,1650,1691,1690,1936,1937,1978,1977
1410,1650,1651,1692,1691,1937,1938,1979,1978
1411,1651,1652,1693,1692,1938,1939,1980,1979
1412,1652,1653,1694,1693,1939,1940,1981,1980
1413,1653,1654,1695,1694,1940,1941,1982,1981
1414,1654,1655,1696,1695,1941,1942,1983,1982
1415,1655,1656,1697,1696,1942,1943,1984,1983
1416,1656,1657,1698,1697,1943,1944,1985,1984
1417,1657,1658,1699,1698,1944,1945,1986,1985
1418,1658,1659,1700,1699,1945,1946,1987,1986
1419,1659,1660,1701,1700,1946,1947,1988,1987
1420,1660,1661,1702,1701,1947,1948,1989,1988
1421,1661,1662,1703,1702,1948,1949,1990,1989
1422,1662,1663,1704,1703,1949,1950,1991,1990
1423,1663,1664,1705,1704,1950,1951,1992,1991
1424,1664,1665,1706,1705,1951,1952,1993,1992
1425,1665,1666,1707,1706,1952,1953,1994,1993
1426,1666,1667,1708,1707,1953,1954,1995,1994
1427,1667,1668,1709,1708,1954,1955,1996,1995
1428,1668,1669,1710,1709,1955,1956,1997,1996
1429,1669,1670,1711,1710,1956,1957,1998,1997
1430,1670,1671,1712,1711,1957,1958,1999,1998
1431,1671,1672,1713,1712,1958,1959,2000,1999
1432,1672,1673,1714,1713,1959,1960,2001,2000
1433,1673,1674,1715,1714,1960,1961,2002,2001
1434,1674,1675,1716,1715,1961,1962,2003,2002
1435,1675,1676,1717,1716,1962,1963,2004,2003
1436,1676,1677,1718,1717,1963,1964,2005,2004
1437,1677,1678,1719,1718,1964,1965,2006,2005
1438,1678,1679,1720,1719,1965,1966,2007,2006
1439,1679,1680,1721,1720,1966,1967,2008,2007
1440,1680,1681,1722,1721,1967,1968,2009,2008
1441,1723,1724,1765,1764,2010,2011,2052,2051
1442,1724,1725,1766,1765,2011,2012,2053,2052
1443,1725,1726,1767,1766,2012,2013,2054,2053
1444,1726,1727,1768,1767,2013,2014,2055,2054
1445,1727,1728,1769,1768,2014,2015,2056,2055
1446,1728,1729,1770,1769,2015,2016,2057,2056
1447,1729,1730,1771,1770,2016,2017,2058,2057
1448,1730,1731,1772,1771,2017,2018,2059,2058
1449,1731,1732,1773,1772,2018,2019,2060,2059
1450,1732,1733,1774,1773,2019,2020,2061,2060
1451,1733,1734,1775,1774,2020,2021,2062,2061
1452,1734,1735,1776,1775,2021,2022,2063,2062
1453,1735,1736,1777,1776,2022,2023,2064,2063
1454,1736,1737,1778,1777,2023,2024,2065,2064
1455,1737,1738,1779,1778,2024,2025,2066,2065
1456,1738,1739,1780,1779,2025,2026,2067,2066
1457,1739,1740,1781,1780,2026,2027,2068,2067
1458,1740,1741,1782,1781,2027,2028,2069,2068
1459,1741,1742,1783,1782,2028,2029,2070,2069
1460,1742,1743,1784,1783,2029,2030,2071,2070
1461,1743,1744,1785,1784,2030,2031,2072,2071
1462,1744,1745,1786,1785,2031,2032,2073,2072
1463,1745,1746,1787,1786,2032,2033,2074,2073
1464,1746,1747,1788,1787,2033,2034,2075,2074
1465,1747,1748,1789,1788,2034,2035,2076,2075
1466,1748,1749,1790,1789,2035,2036,2077,2076
1467,1749,1750,1791,1790,2036,2037,2078,2077
1468,1750,1751,1792,1791,2037,2038,2079,2078
1469,1751,1752,1793,1792,2038,2039,2080,2079
1470,1752,1753,1794,1793,2039,2040,2081,2080
1471,1753,1754,1795,1794,2040,2041,2082,2081
1472,1754,1755,1796,1795,2041,2042,2083,2082
1473,1755,1756,1797,1796,2042,2043,2084,2083
1474,1756,1757,1798,1797,2043,2044,2085,2084
1475,1757,1758,1799,1798,2044,2045,2086,2085
1476,1758,1759,1800,1799,2045,2046,2087,2086
1477,1759,1760,1801,1800,2046,2047,2088,2087
1478,1760,1761,1802,1801,2047,2048,2089,2088
1479,1761,1762,1803,1802,2048,2049,2090,2089
1480,1762,1763,1804,1803,2049,2050,2091,2090
1481,1764,1765,1806,1805,2051,2052,2093,2092
1482,1765,1766,1807,1806,2052,2053,2094,2093
1483,1766,1767,1808,1807,2053,2054,2095,2094
1484,1767,1768,1809,1808,2054,2055,2096,2095
1485,1768,1769,1810,1809,2055,2056,2097,2096
1486,1769,1770,1811,1810,2056,2057,2098,2097
1487,1770,1771,1812,1811,2057,2058,2099,2098
1488,1771,1772,1813,1812,2058,2059,2100,2099
1489,1772,1773,1814,1813,2059,2060,2101,2100
1490,1773,1774,1815,1814,2060,2061,2102,2101
1491,1774,1775,1816,1815,2061,2062,2103,2102
1492,1775,1776,1817,1816,2062,2063,2104,2103
1493,1776,1777,1818,1817,2063,2064,2105,2104
1494,1777,1778,1819,1818,2064,2065,2106,2105
1495,1778,1779,1820,1819,2065,2066,2107,2106
1496,1779,1780,1821,1820,2066,2067,2108,2107
1497,1780,1781,1822,1821,2067,2068,2109,2108
1498,1781,1782,1823,1822,2068,2069,2110,2109
1499,1782,1783,1824,1823,2069,2070,2111,2110
1500,1783,1784,1825,1824,2070,2071,2112,2111
1501,1784,1785,1826,1825,2071,2072,2113,2112
1502,1785,1786,1827,1826,2072,2073,2114,2113
1503,1786,1787,1828,1827,2073,2074,2115,2114
1504,1787,1788,1829,1828,2074,2075,2116,2115
1505,1788,1789,1830,1829,2075,2076,2117,2116
1506,1789,1790,1831,1830,2076,2077,2118,2117
1507,1790,1791,1832,1831,2077,2078,2119,2118
1508,1791,1792,1833,1832,2078,2079,2120,2119
1509,1792,1793,1834,1833,2079,2080,2121,2120
1510,1793,1794,1835,1834,2080,2081,2122,2121
1511,1794,1795,1836,1835,2081,2082,2123,2122
1512,1795,1796,1837,1836,2082,2083,2124,2123
1513,1796,1797,1838,1837,2083,2084,2125,2124
1514,1797,1798,1839,1838,2084,2085,2126,2125
1515,1798,1799,1840,1839,2085,2086,2127,2126
1516,1799,1800,1841,1840,2086,2087,2128,2127
1517,1800,1801,1842,1841,2087,2088,2129,2128
1518,1801,1802,1843,1842,2088,2089,2130,2129
1519,1802,1803,1844,1843,2089,2090,2131,2130
1520,1803,1804,1845,1844,2090,2091,2132,2131
1521,1805,1806,1847,1846,2092,2093,2134,2133
1522,1806,1807,1848,1847,2093,2094,2135,2134
1523,1807,1808,1849,1848,2094,2095,2136,2135
1524,1808,1809,1850,1849,2095,2096,2137,2136
1525,1809,1810,1851,1850,2096,2097,2138,2137
1526,1810,1811,1852,1851,2097,2098,2139,2138
1527,1811,1812,1853,1852,2098,2099,2140,2139
1528,1812,1813,1854,1853,2099,2100,2141,2140
1529,1813,1814,1855,1854,2100,2101,2142,2141
1530,1814,1815,1856,1855,2101,2102,2143,2142
1531,1815,1816,1857,1856,2102,2103,2144,2143
1532,1816,1817,1858,1857,2103,2104,2145,2144
1533,1817,1818,1859,1858,2104,2105,2146,2145
1534,1818,1819,1860,1859,2105,2106,2147,2146
1535,1819,1820,1861,1860,2106,2107,2148,2147
1536,1820,1821,1862,1861,2107,2108,2149,2148
1537,1821,1822,1863,1862,2108,2109,2150,2149
1538,1822,1823,1864,1863,2109,2110,2151,2150
1539,1823,1824,1865,1864,2110,2111,2152,2151
1540,1824,1825,1866,1865,2111,2112,2153,2152
1541,1825,1826,1867,1866,2112,2113,2154,2153
1542,1826,1827,1868,1867,2113,2114,2155,2154
1543,1827,1828,1869,1868,2114,2115,2156,2155
1544,1828,1829,1870,1869,2115,2116,2157,2156
1545,1829,1830,1871,1870,2116,2117,2158,2157
1546,1830,1831,1872,1871,2117,2118,2159,2158
1547,1831,1832,1873,1872,2118,2119,2160,2159
1548,1832,1833,1874,1873,2119,2120,2161,2160
1549,1833,1834,1875,1874,2120,2121,2162,2161
1550,1834,1835,1876,1875,2121,2122,2163,2162
1551,1835,1836,1877,1876,2122,2123,2164,2163
1552,1836,1837,1878,1877,2123,2124,2165,2164
1553,1837,1838,1879,1878,2124,2125,2166,2165
1554,1838,1839,1880,1879,2125,2126,2167,2166
1555,1839,1840,1881,1880,2126,2127,2168,2167
1556,1840,1841,1882,1881,2127,2128,2169,2168
1557,1841,1842,1883,1882,2128,2129,2170,2169
1558,1842,1843,1884,1883,2129,2130,2171,2170
1559,1843,1844,1885,1884,2130,2131,2172,2171
1560,1844,1845,1886,1885,2131,2132,2173,2172
1561,1846,1847,1888,1887,2133,2134,2175,2174
1562,1847,1848,1889,1888,2134,2135,2176,2175
1563,1848,1849,1890,1889,2135,2136,2177,2176
1564,1849,1850,1891,1890,2136,2137,2178,2177
1565,1850,1851,1892,1891,2137,2138,2179,2178
1566,1851,1852,1893,1892,2138,2139,2180,2179
1567,1852,1853,1894,1893,2139,2140,2181,2180
1568,1853,1854,1895,1894,2140,2141,2182,2181
1569,1854,1855,1896,1895,2141,2142,2183,2182
1570,1855,1856,1897,1896,2142,2143,2184,2183
1571,1856,1857,1898,1897,2143,2144,2185,2184
1572,1857,1858,1899,1898,2144,2145,2186,2185
1573,1858,1859,1900,1899,2145,2146,2187,2186
1574,1859,1860,1901,1900,2146,2147,2188,2187
1575,1860,1861,1902,1901,2147,2148,2189,2188
1576,1861,1862,1903,1902,2148,2149,2190,2189
1577,1862,1863,1904,1903,2149,2150,2191,2190
1578,1863,1864,1905,1904,2150,2151,2192,2191
1579,1864,1865,1906,1905,2151,2152,2193,2192
1580,1865,1866,1907,1906,2152,2153,2194,2193
1581,1866,1867,1908,1907,2153,2154,2195,2194
1582,1867,1868,1909,1908,2154,2155,2196,2195
1583,1868,1869,1910,1909,2155,2156,2197,2196
1584,1869,1870,1911,1910,2156,2157,2198,2197
1585,1870,1871,1912,1911,2157,2158,2199,2198
1586,1871,1872,1913,1912,2158,2159,2200,2199
1587,1872,1873,1914,1913,2159,2160,2201,2200
1588,1873,1874,1915,1914,2160,2161,2202,2201
1589,1874,1875,1916,1915,2161,2162,2203,2202
1590,1875,1876,1917,1916,2162,2163,2204,2203
1591,1876,1877,1918,1917,2163,2164,2205,2204
1592,1877,1878,1919,1918,2164,2165,2206,2205
1593,1878,1879,1920,1919,2165,2166,2207,2206
1594,1879,1880,1921,1920,2166,2167,2208,2207
1595,1880,1881,1922,1921,2167,2168,2209,2208
1596,1881,1882,1923,1922,2168,2169,2210,2209
1597,1882,1883,1924,1923,2169,2170,2211,2210
1598,1883,1884,1925,1924,2170,2171,2212,2211
1599,1884,1885,1926,1925,2171,2172,2213,2212
1600,1885,1886,1927,1926,2172,2173,2214,2213
1601,1887,1888,1929,1928,2174,2175,2216,2215
1602,1888,1889,1930,1929,2175,2176,2217,2216
1603,1889,1890,1931,1930,2176,2177,2218,2217
1604,1890,1891,1932,1931,2177,2178,2219,2218
1605,1891,1892,1933,1932,2178,2179,2220,2219
1606,1892,1893,1934,1933,2179,2180,2221,2220
1607,1893,1894,1935,1934,2180,2181,2222,2221
1608,1894,1895,1936,1935,2181,2182,2223,2222
1609,1895,1896,1937,1936,2182,2183,2224,2223
1610,1896,1897,1938,1937,2183,2184,2225,2224
1611,1897,1898,1939,1938,2184,2185,2226,2225
1612,1898,1899,1940,1939,2185,2186,2227,2226
1613,1899,1900,1941,1940,2186,2187,2228,2227
1614,1900,1901,1942,1941,2187,2188,2229,2228
1615,1901,1902,1943,1942,2188,2189,2230,2229
1616,1902,1903,1944,1943,2189,2190,2231,2230
1617,1903,1904,1945,1944,2190,2191,2232,2231
1618,1904,1905,1946,1945,2191,2192,2233,2232
1619,1905,1906,1947,1946,2192,2193,2234,2233
1620,1906,1907,1948,1947,2193,2194,2235,2234
1621,1907,1908,1949,1948,2194,2195,2236,2235
1622,1908,1909,1950,1949,2195,2196,2237,2236
1623,1909,1910,1951,1950,2196,2197,2238,2237
1624,1910,1911,1952,1951,2197,2198,2239,2238
1625,1911,1912,1953,1952,2198,2199,2240,2239
1626,1912,1913,1954,1953,2199,2200,2241,2240
1627,1913,1914,1955,1954,2200,2201,2242,2241
1628,1914,1915,1956,1955,2201,2202,2243,2242
1629,1915,1916,1957,1956,2202,2203,2244,2243
1630,1916,1917,1958,1957,2203,2204,2245,2244
1631,1917,1918,1959,1958,2204,2205,2246,2245
1632,1918,1919,1960,1959,2205,2206,2247,2246
1633,1919,1920,1961,1960,2206,2207,2248,2247
1634,1920,1921,1962,1961,2207,2208,2249,2248
1635,1921,1922,1963,1962,2208,2209,2250,2249
1636,1922,1923,1964,1963,2209,2210,2251,2250
1637,1923,1924,1965,1964,2210,2211,2252,2251
1638,1924,1925,1966,1965,2211,2212,2253,2252
1639,1925,1926,1967,1966,2212,2213,2254,2253
1640,1926,1927,1968,1967,2213,2214,2255,2254
1641,1928,1929,1970,1969,2215,2216,2257,2256
1642,1929,1930,1971,1970,2216,2217,2258,2257
1643,1930,1931,1972,1971,2217,2218,2259,2258
1644,1931,1932,1973,1972,2218,2219,2260,2259
1645,1932,1933,1974,1973,2219,2220,2261,2260
1646,1933,1934,1975,1974,2220,2221,2262,2261
1647,1934,1935,1976,1975,2221,2222,2263,2262
1648,1935,1936,1977,1976,2222,2223,2264,2263
1649,1936,1937,1978,1977,2223,2224,2265,2264
1650,1937,1938,1979,1978,2224,2225,2266,2265
1651,1938,1939,1980,1979,2225,2226,2267,2266
1652,1939,1940,1981,1980,2226,2227,2268,2267
1653,1940,1941,1982,1981,2227,2228,2269,2268
1654,1941,1942,1983,1982,2228,2229,2270,2269
1655,1942,1943,1984,1983,2229,2230,2271,2270
1656,1943,1944,1985,1984,2230,2231,2272,2271
1657,1944,1945,1986,1985,2231,2232,2273,2272
1658,1945,1946,1987,1986,2232,2233,2274,2273
1659,1946,1947,1988,1987,2233,2234,2275,2274
1660,1947,1948,1989,1988,2234,2235,2276,2275
1661,1948,1949,1990,1989,2235,2236,2277,2276
1662,1949,1950,1991,1990,2236,2237,2278,2277
1663,1950,1951,1992,1991,2237,2238,2279,2278
1664,1951,1952,1993,1992,2238,2239,2280,2279
1665,1952,1953,1994,1993,2239,2240,2281,2280
1666,1953,1954,1995,1994,2240,2241,2282,2281
1667,1954,1955,1996,1995,2241,2242,2283,2282
1668,1955,1956,1997,1996,2242,2243,2284,2283
1669,1956,1957,1998,1997,2243,2244,2285,2284
1670,1957,1958,1999,1998,2244,2245,2286,2285
1671,1958,1959,2000,1999,2245,2246,2287,2286
1672,1959,1960,2001,2000,2246,2247,2288,2287
1673,1960,1961,2002,2001,2247,2248,2289,2288
1674,1961,1962,2003,2002,2248,2249,2290,2289
1675,1962,1963,2004,2003,2249,2250,2291,2290
1676,1963,1964,2005,2004,2250,2251,2292,2291
1677,1964,1965,2006,2005,2251,2252,2293,2292
1678,1965,1966,2007,2006,2252,2253,2294,2293
1679,1966,1967,2008,2007,2253,2254,2295,2294
1680,1967,1968,2009,2008,2254,2255,2296,2295
1681,2010,2011,2052,2051,2297,2298,2339,2338
1682,2011,2012,2053,2052,2298,2299,2340,2339
1683,2012,2013,2054,2053,2299,2300,2341,2340
1684,2013,2014,2055,2054,2300,2301,2342,2341
1685,2014,2015,2056,2055,2301,2302,2343,2342
1686,2015,2016,2057,2056,2302,2303,2344,2343
1687,2016,2017,2058,2057,2303,2304,2345,2344
1688,2017,2018,2059,2058,2304,2305,2346,2345
1689,2018,2019,2060,2059,2305,2306,2347,2346
1690,2019,2020,2061,2060,2306,2307,2348,2347
1691,2020,2021,2062,2061,2307,2308,2349,2348
1692,2021,2022,2063,2062,2308,2309,2350,2349
1693,2022,2023,2064,2063,2309,2310,2351,2350
1694,2023,2024,2065,2064,2310,2311,2352,2351
1695,2024,2025,2066,2065,2311,2312,2353,2352
1696,2025,2026,2067,2066,2312,2313,2354,2353
1697,2026,2027,2068,2067,2313,2314,2355,2354
1698,2027,2028,2069,2068,2314,2315,2356,2355
1699,2028,2029,2070,2069,2315,2316,2357,2356
1700,2029,2030,2071,2070,2316,2317,2358,2357
1701,2030,2031,2072,2071,2317,2318,2359,2358
1702,2031,2032,2073,2072,2318,2319,2360,2359
1703,2032,2033,2074,2073,2319,2320,2361,2360
1704,2033,2034,2075,2074,2320,2321,2362,2361
1705,2034,2035,2076,2075,2321,2322,2363,2362
1706,2035,2036,2077,2076,2322,2323,2364,2363
1707,2036,2037,2078,2077,2323,2324,2365,2364
1708,2037,2038,2079,2078,2324,2325,2366,2365
1709,2038,2039,2080,2079,2325,2326,2367,2366
1710,2039,2040,2081,2080,2326,2327,2368,2367
1711,2040,2041,2082,2081,2327,2328,2369,2368
1712,2041,2042,2083,2082,2328,2329,2370,2369
1713,2042,2043,2084,2083,2329,2330,2371,2370
1714,2043,2044,2085,2084,2330,2331,2372,2371
1715,2044,2045,2086,2085,2331,2332,2373,2372
1716,2045,2046,2087,2086,2332,2333,2374,2373
1717,2046,2047,2088,2087,2333,2334,2375,2374
1718,2047,2048,2089,2088,2334,2335,2376,2375
1719,2048,2049,2090,2089,2335,2336,2377,2376
1720,2049,2050,2091,2090,2336,2337,2378,2377
1721,2051,2052,2093,2092,2338,2339,2380,2379
1722,2052,2053,2094,2093,2339,2340,2381,2380
1723,2053,2054,2095,2094,2340,2341,2382,2381
1724,2054,2055,2096,2095,2341,2342,2383,2382
1725,2055,2056,2097,2096,2342,2343,2384,2383
1726,2056,2057,2098,2097,2343,2344,2385,2384
1727,2057,2058,2099,2098,2344,2345,2386,2385
1728,2058,2059,2100,2099,2345,2346,2387,2386
1729,2059,2060,2101,2100,2346,2347,2388,2387
1730,2060,2061,2102,2101,2347,2348,2389,2388
1731,2061,2062,2103,2102,2348,2349,2390,2389
1732,2062,2063,2104,2103,2349,2350,2391,2390
1733,2063,2064,2105,2104,2350,2351,2392,2391
1734,2064,2065,2106,2105,2351,2352,2393,2392
1735,2065,2066,2107,2106,2352,2353,2394,2393
1736,2066,2067,2108,2107,2353,2354,2395,2394
1737,2067,2068,2109,2108,2354,2355,2396,2395
1738,2068,2069,2110,2109,2355,2356,2397,2396
1739,2069,2070,2111,2110,2356,2357,2398,2397
1740,2070,2071,2112,2111,2357,2358,2399,2398
1741,2071,2072,2113,2112,2358,2359,2400,2399
1742,2072,2073,2114,2113,2359,2360,2401,2400
1743,2073,2074,2115,2114,2360,2361,2402,2401
1744,2074,2075,2116,2115,2361,2362,2403,2402
1745,2075,2076,2117,2116,2362,2363,2404,2403
1746,2076,2077,2118,2117,2363,2364,2405,2404
1747,2077,2078,2119,2118,2364,2365,2406,2405
1748,2078,2079,2120,2119,2365,2366,2407,2406
1749,2079,2080,2121,2120,2366,2367,2408,2407
1750,2080,2081,2122,2121,2367,2368,2409,2408
1751,2081,2082,2123,2122,2368,2369,2410,2409
1752,2082,2083,2124,2123,2369,2370,2411,2410
1753,2083,2084,2125,2124,2370,2371,2412,2411
1754,2084,2085,2126,2125,2371,2372,2413,2412
1755,2085,2086,2127,2126,2372,2373,2414,2413
1756,2086,2087,2128,2127,2373,2374,2415,2414
1757,2087,2088,2129,2128,2374,2375,2416,2415
1758,2088,2089,2130,2129,2375,2376,2417,2416
1759,2089,2090,2131,2130,2376,2377,2418,2417
1760,2090,2091,2132,2131,2377,2378,2419,2418
1761,2092,2093,2134,2133,2379,2380,2421,2420
1762,2093,2094,2135,2134,2380,2381,2422,2421
1763,2094,2095,2136,2135,2381,2382,2423,2422
1764,2095,2096,2137,2136,2382,2383,2424,2423
1765,2096,2097,2138,2137,2383,2384,2425,2424
1766,2097,2098,2139,2138,2384,2385,2426,2425
1767,2098,2099,2140,2139,2385,2386,2427,2426
1768,2099,2100,2141,2140,2386,2387,2428,2427
1769,2100,2101,2142,2141,2387,2388,2429,2428
1770,2101,2102,2143,2142,2388,2389,2430,2429
1771,2102,2103,2144,2143,2389,2390,2431,2430
1772,2103,2104,2145,2144,2390,2391,2432,2431
1773,2104,2105,2146,2145,2391,2392,2433,2432
1774,2105,2106,2147,2146,2392,2393,2434,2433
1775,2106,2107,2148,2147,2393,2394,2435,2434
1776,2107,2108,2149,2148,2394,2395,2436,2435
1777,2108,2109,2150,2149,2395,2396,2437,2436
1778,2109,2110,2151,2150,2396,2397,2438,2437
1779,2110,2111,2152,2151,2397,2398,2439,2438
1780,2111,2112,2153,2152,2398,2399,2440,2439
1781,2112,2113,2154,2153,2399,2400,2441,2440
1782,2113,2114,2155,2154,2400,2401,2442,2441
1783,2114,2115,2156,2155,2401,2402,2443,2442
1784,2115,2116,2157,2156,2402,2403,2444,2443
1785,2116,2117,2158,2157,2403,2404,2445,2444
1786,2117,2118,2159,2158,2404,2405,2446,2445
1787,2118,2119,2160,2159,2405,2406,2447,2446
1788,2119,2120,2161,2160,2406,2407,2448,2447
1789,2120,2121,2162,2161,2407,2408,2449,2448
1790,2121,2122,2163,2162,2408,2409,2450,2449
1791,2122,2123,2164,2163,2409,2410,2451,2450
1792,2123,2124,2165,2164,2410,2411,2452,2451
1793,2124,2125,2166,2165,2411,2412,2453,2452
1794,2125,2126,2167,2166,2412,2413,2454,2453
1795,2126,2127,2168,2167,2413,2414,2455,2454
1796,2127,2128,2169,2168,2414,2415,2456,2455
1797,2128,2129,2170,2169,2415,2416,2457,2456
1798,2129,2130,2171,2170,2416,2417,2458,2457
1799,2130,2131,2172,2171,2417,2418,2459,2458
1800,2131,2132,2173,2172,2418,2419,2460,2459
1801,2133,2134,2175,2174,2420,2421,2462,2461
1802,2134,2135,2176,2175,2421,2422,2463,2462
1803,2135,2136,2177,2176,2422,2423,2464,2463
1804,2136,2137,2178,2177,2423,2424,2465,2464
1805,2137,2138,2179,2178,2424,2425,2466,2465
1806,2138,2139,2180,2179,2425,2426,2467,2466
1807,2139,2140,2181,2180,2426,2427,2468,2467
1808,2140,2141,2182,2181,2427,2428,2469,2468
1809,2141,2142,2183,2182,2428,2429,2470,2469
1810,2142,2143,2184,2183,2429,2430,2471,2470
1811,2143,2144,2185,2184,2430,2431,2472,2471
1812,2144,2145,2186,2185,2431,2432,2473,2472
1813,2145,2146,2187,2186,2432,2433,2474,2473
1814,2146,2147,2188,2187,2433,2434,2475,2474
1815,2147,2148,2189,2188,2434,2435,2476,2475
1816,2148,2149,2190,2189,2435,2436,2477,2476
1817,2149,2150,2191,2190,2436,2437,2478,2477
1818,2150,2151,2192,2191,2437,2438,2479,2478
1819,2151,2152,2193,2192,2438,2439,2480,2479
1820,2152,2153,2194,2193,2439,2440,2481,2480
1821,2153,2154,2195,2194,2440,2441,2482,2481
1822,2154,2155,2196,2195,2441,2442,2483,2482
1823,2155,2156,2197,2196,2442,2443,2484,2483
1824,2156,2157,2198,2197,2443,2444,2485,2484
1825,2157,2158,2199,2198,2444,2445,2486,2485
1826,2158,2159,2200,2199,2445,2446,2487,2486
1827,2159,2160,2201,2200,2446,2447,2488,2487
1828,2160,2161,2202,2201,2447,2448,2489,2488
1829,2161,2162,2203,2202,2448,2449,2490,2489
1830,2162,2163,2204,2203,2449,2450,2491,2490
1831,2163,2164,2205,2204,2450,2451,2492,2491
1832,2164,2165,2206,2205,2451,2452,2493,2492
1833,2165,2166,2207,2206,2452,2453,2494,2493
1834,2166,2167,2208,2207,2453,2454,2495,2494
1835,2167,2168,2209,2208,2454,2455,2496,2495
1836,2168,2169,2210,2209,2455,2456,2497,2496
1837,2169,2170,2211,2210,2456,2457,2498,2497
1838,2170,2171,2212,2211,2457,2458,2499,2498
1839,2171,2172,2213,2212,2458,2459,2500,2499
1840,2172,2173,2214,2213,2459,2460,2501,2500
1841,2174,2175,2216,2215,2461,2462,2503,2502
1842,2175,2176,2217,2216,2462,2463,2504,2503
1843,2176,2177,2218,2217,2463,2464,2505,2504
1844,2177,2178,2219,2218,2464,2465,2506,2505
1845,2178,2179,2220,2219,2465,2466,2507,2506
1846,2179,2180,2221,2220,2466,2467,2508,2507
1847,2180,2181,2222,2221,2467,2468,2509,2508
1848,2181,2182,2223,2222,2468,2469,2510,2509
1849,2182,2183,2224,2223,2469,2470,2511,2510
1850,2183,2184,2225,2224,2470,2471,2512,2511
1851,2184,2185,2226,2225,2471,2472,2513,2512
1852,2185,2186,2227,2226,2472,2473,2514,2513
1853,2186,2187,2228,2227,2473,2474,2515,2514
1854,2187,2188,2229,2228,2474,2475,2516,2515
1855,2188,2189,2230,2229,2475,2476,2517,2516
1856,2189,2190,2231,2230,2476,2477,2518,2517
1857,2190,2191,2232,2231,2477,2478,2519,2518
1858,2191,2192,2233,2232,2478,2479,2520,2519
1859,2192,2193,2234,2233,2479,2480,2521,2520
1860,2193,2194,2235,2234,2480,2481,2522,2521
1861,2194,2195,2236,2235,2481,2482,2523,2522
1862,2195,2196,2237,2236,2482,2483,2524,2523
1863,2196,2197,2238,2237,2483,2484,2525,2524
1864,2197,2198,2239,2238,2484,2485,2526,2525
1865,2198,2199,2240,2239,2485,2486,2527,2526
1866,2199,2200,2241,2240,2486,2487,2528,2527
1867,2200,2201,2242,2241,2487,2488,2529,2528
1868,2201,2202,2243,2242,2488,2489,2530,2529
1869,2202,2203,2244,2243,2489,2490,2531,2530
1870,2203,2204,2245,2244,2490,2491,2532,2531
1871,2204,2205,2246,2245,2491,2492,2533,2532
1872,2205,2206,2247,2246,2492,2493,2534,2533
1873,2206,2207,2248,2247,2493,2494,2535,2534
1874,2207,2208,2249,2248,2494,2495,2536,2535
1875,2208,2209,2250,2249,2495,2496,2537,2536
1876,2209,2210,2251,2250,2496,2497,2538,2537
1877,2210,2211,2252,2251,2497,2498,2539,2538
1878,2211,2212,2253,2252,2498,2499,2540,2539
1879,2212,2213,2254,2253,2499,2500,2541,2540
1880,2213,2214,2255,2254,2500,2501,2542,2541
1881,2215,2216,2257,2256,2502,2503,2544,2543
1882,2216,2217,2258,2257,2503,2504,2545,2544
1883,2217,2218,2259,2258,2504,2505,2546,2545
1884,2218,2219,2260,2259,2505,2506,2547,2546
1885,2219,2220,2261,2260,2506,2507,2548,2547
1886,2220,2221,2262,2261,2507,2508,2549,2548
1887,2221,2222,2263,2262,2508,2509,2550,2549
1888,2222,2223,2264,2263,2509,2510,2551,2550
1889,2223,2224,2265,2264,2510,2511,2552,2551
1890,2224,2225,2266,2265,2511,2512,2553,2552
1891,2225,2226,2267,2266,2512,2513,2554,2553
1892,2226,2227,2268,2267,2513,2514,2555,2554
1893,2227,2228,2269,2268,2514,2515,2556,2555
1894,2228,2229,2270,2269,2515,2516,2557,2556
1895,2229,2230,2271,2270,2516,2517,2558,2557
1896,2230,2231,2272,2271,2517,2518,2559,2558
1897,2231,2232,2273,2272,2518,2519,2560,2559
1898,2232,2233,2274,2273,2519,2520,2561,2560
1899,2233,2234,2275,2274,2520,2521,2562,2561
1900,2234,2235,2276,2275,2521,2522,2563,2562
1901,2235,2236,2277,2276,2522,2523,2564,2563
1902,2236,2237,2278,2277,2523,2524,2565,2564
1903,2237,2238,2279,2278,2524,2525,2566,2565
1904,2238,2239,2280,2279,2525,2526,2567,2566
1905,2239,2240,2281,2280,2526,2527,2568,2567
1906,2240,2241,2282,2281,2527,2528,2569,2568
1907,2241,2242,2283,2282,2528,2529,2570,2569
1908,2242,2243,2284,2283,2529,2530,2571,2570
1909,2243,2244,2285,2284,2530,2531,2572,2571
1910,2244,2245,2286,2285,2531,2532,2573,2572
1911,2245,2246,2287,2286,2532,2533,2574,2573
1912,2246,2247,2288,2287,2533,2534,2575,2574
1913,2247,2248,2289,2288,2534,2535,2576,2575
1914,2248,2249,2290,2289,2535,2536,2577,2576
1915,2249,2250,2291,2290,2536,2537,2578,2577
1916,2250,2251,2292,2291,2537,2538,2579,2578
1917,2251,2252,2293,2292,2538,2539,2580,2579
1918,2252,2253,2294,2293,2539,2540,2581,2580
1919,2253,2254,2295,2294,2540,2541,2582,2581
1920,2254,2255,2296,2295,2541,2542,2583,2582
1921,2297,2298,2339,2338,2584,2585,2626,2625
1922,2298,2299,2340,2339,2585,2586,2627,2626
1923,2299,2300,2341,2340,2586,2587,2628,2627
1924,2300,2301,2342,2341,2587,2588,2629,2628
1925,2301,2302,2343,2342,2588,2589,2630,2629
1926,2302,2303,2344,2343,2589,2590,2631,2630
1927,2303,2304,2345,2344,2590,2591,2632,2631
1928,2304,2305,2346,2345,2591,2592,2633,2632
1929,2305,2306,2347,2346,2592,2593,2634,2633
1930,2306,2307,2348,2347,2593,2594,2635,2634
1931,2307,2308,2349,2348,2594,2595,2636,2635
1932,2308,2309,2350,2349,2595,2596,2637,2636
1933,2309,2310,2351,2350,2596,2597,2638,2637
1934,2310,2311,2352,2351,2597,2598,2639,2638
1935,2311,2312,2353,2352,2598,2599,2640,2639
1936,2312,2313,2354,2353,2599,2600,2641,2640
1937,2313,2314,2355,2354,2600,2601,2642,2641
1938,2314,2315,2356,2355,2601,2602,2643,2642
1939,2315,2316,2357,2356,2602,2603,2644,2643
1940,2316,2317,2358,2357,2603,2604,2645,2644
1941,2317,2318,2359,2358,2604,2605,2646,2645
1942,2318,2319,2360,2359,2605,2606,2647,2646
1943,2319,2320,2361,2360,2606,2607,2648,2647
1944,2320,2321,2362,2361,2607,2608,2649,2648
1945,2321,2322,2363,2362,2608,2609,2650,2649
1946,2322,2323,2364,2363,2609,2610,2651,2650
1947,2323,2324,2365,2364,2610,2611,2652,2651
1948,2324,2325,2366,2365,2611,2612,2653,2652
1949,2325,2326,2367,2366,2612,2613,2654,2653
1950,2326,2327,2368,2367,2613,2614,2655,2654
1951,2327,2328,2369,2368,2614,2615,2656,2655
1952,2328,2329,2370,2369,2615,2616,2657,2656
1953,2329,2330,2371,2370,2616,2617,2658,2657
1954,2330,2331,2372,2371,2617,2618,2659,2658
1955,2331,2332,2373,2372,2618,2619,2660,2659
1956,2332,2333,2374,2373,2619,2620,2661,2660
1957,2333,2334,2375,2374,2620,2621,2662,2661
1958,2334,2335,2376,2375,2621,2622,2663,2662
1959,2335,2336,2377,2376,2622,2623,2664,2663
1960,2336,2337,2378,2377,2623,2624,2665,2664
1961,2338,2339,2380,2379,2625,2626,2667,2666
1962,2339,2340,2381,2380,2626,2627,2668,2667
1963,2340,2341,2382,2381,2627,2628,2669,2668
1964,2341,2342,2383,2382,2628,2629,2670,2669
1965,2342,2343,2384,2383,2629,2630,2671,2670
1966,2343,2344,2385,2384,2630,2631,2672,2671
1967,2344,2345,2386,2385,2631,2632,2673,2672
1968,2345,2346,2387,2386,2632,2633,2674,2673
1969,2346,2347,2388,2387,2633,2634,2675,2674
1970,2347,2348,2389,2388,2634,2635,2676,2675
1971,2348,2349,2390,2389,2635,2636,2677,2676
1972,2349,2350,2391,2390,2636,2637,2678,2677
1973,2350,2351,2392,2391,2637,2638,2679,2678
1974,2351,2352,2393,2392,2638,2639,2680,2679
1975,2352,2353,2394,2393,2639,2640,2681,2680
1976,2353,2354,2395,2394,2640,2641,2682,2681
1977,2354,2355,2396,2395,2641,2642,2683,2682
1978,2355,2356,2397,2396,2642,2643,2684,2683
1979,2356,2357,2398,2397,2643,2644,2685,2684
1980,2357,2358,2399,2398,2644,2645,2686,2685
1981,2358,2359,2400,2399,2645,2646,2687,2686
1982,2359,2360,2401,2400,2646,2647,2688,2687
1983,2360,2361,2402,2401,2647,2648,2689,2688
1984,2361,2362,2403,2402,2648,2649,2690,2689
1985,2362,2363,2404,2403,2649,2650,2691,2690
1986,2363,2364,2405,2404,2650,2651,2692,2691
1987,2364,2365,2406,2405,2651,2652,2693,2692
1988,2365,2366,2407,2406,2652,2653,2694,2693
1989,2366,2367,2408,2407,2653,2654,2695,2694
1990,2367,2368,2409,2408,2654,2655,2696,2695
1991,2368,2369,2410,2409,2655,2656,2697,2696
1992,2369,2370,2411,2410,2656,2657,2698,2697
1993,2370,2371,2412,2411,2657,2658,2699,2698
1994,2371,2372,2413,2412,2658,2659,2700,2699
1995,2372,2373,2414,2413,2659,2660,2701,2700
1996,2373,2374,2415,2414,2660,2661,2702,2701
1997,2374,2375,2416,2415,2661,2662,2703,2702
1998,2375,2376,2417,2416,2662,2663,2704,2703
1999,2376,2377,2418,2417,2663,2664,2705,2704
2000,2377,2378,2419,2418,2664,2665,2706,2705
2001,2379,2380,2421,2420,2666,2667,2708,2707
2002,2380,2381,2422,2421,2667,2668,2709,2708
2003,2381,2382,2423,2422,2668,2669,2710,2709
2004,2382,2383,2424,2423,2669,2670,2711,2710
2005,2383,2384,2425,2424,2670,2671,2712,2711
2006,2384,2385,2426,2425,2671,2672,2713,2712
2007,2385,2386,2427,2426,2672,2673,2714,2713
2008,2386,2387,2428,2427,2673,2674,2715,2714
2009,2387,2388,2429,2428,2674,2675,2716,2715
2010,2388,2389,2430,2429,2675,2676,2717,2716
2011,2389,2390,2431,2430,2676,2677,2718,2717
2012,2390,2391,2432,2431,2677,2678,2719,2718
2013,2391,2392,2433,2432,2678,2679,2720,2719
2014,2392,2393,2434,2433,2679,2680,2721,2720
2015,2393,2394,2435,2434,2680,2681,2722,2721
2016,2394,2395,2436,2435,2681,2682,2723,2722
2017,2395,2396,2437,2436,2682,2683,2724,2723
2018,2396,2397,2438,2437,2683,2684,2725,2724
2019,2397,2398,2439,2438,2684,2685,2726,2725
2020,2398,2399,2440,2439,2685,2686,2727,2726
2021,2399,2400,2441,2440,2686,2687,2728,2727
2022,2400,2401,2442,2441,2687,2688,2729,2728
2023,2401,2402,2443,2442,2688,2689,2730,2729
2024,2402,2403,2444,2443,2689,2690,2731,2730
2025,2403,2404,2445,2444,2690,2691,2732,2731
2026,2404,2405,2446,2445,2691,2692,2733,2732
2027,2405,2406,2447,2446,2692,2693,2734,2733
2028,2406,2407,2448,2447,2693,2694,2735,2734
2029,2407,2408,2449,2448,2694,2695,2736,2735
2030,2408,2409,2450,2449,2695,2696,2737,2736
2031,2409,2410,2451,2450,2696,2697,2738,2737
2032,2410,2411,2452,2451,2697,2698,2739,2738
2033,2411,2412,2453,2452,2698,2699,2740,2739
2034,2412,2413,2454,2453,2699,2700,2741,2740
2035,2413,2414,2455,2454,2700,2701,2742,2741
2036,2414,2415,2456,2455,2701,2702,2743,2742
2037,2415,2416,2457,2456,2702,2703,2744,2743
2038,2416,2417,2458,2457,2703,2704,2745,2744
2039,2417,2418,2459,2458,2704,2705,2746,2745
2040,2418,2419,2460,2459,2705,2706,2747,2746
2041,2420,2421,2462,2461,2707,2708,2749,2748
2042,2421,2422,2463,2462,2708,2709,2750,2749
2043,2422,2423,2464,2463,2709,2710,2751,2750
2044,2423,2424,2465,2464,2710,2711,2752,2751
2045,2424,2425,2466,2465,2711,2712,2753,2752
2046,2425,2426,2467,2466,2712,2713,2754,2753
2047,2426,2427,2468,2467,2713,2714,2755,2754
2048,2427,2428,2469,2468,2714,2715,2756,2755
2049,2428,2429,2470,2469,2715,2716,2757,2756
2050,2429,2430,2471,2470,2716,2717,2758,2757
2051,2430,2431,2472,2471,2717,2718,2759,2758
2052,2431,2432,2473,2472,2718,2719,2760,2759
2053,2432,2433,2474,2473,2719,2720,2761,2760
2054,2433,2434,2475,2474,2720,2721,2762,2761
2055,2434,2435,2476,2475,2721,2722,2763,2762
2056,2435,2436,2477,2476,2722,2723,2764,2763
2057,2436,2437,2478,2477,2723,2724,2765,2764
2058,2437,2438,2479,2478,2724,2725,2766,2765
2059,2438,2439,2480,2479,2725,2726,2767,2766
2060,2439,2440,2481,2480,2726,2727,2768,2767
2061,2440,2441,2482,2481,2727,2728,2769,2768
2062,2441,2442,2483,2482,2728,2729,2770,2769
2063,2442,2443,2484,2483,2729,2730,2771,2770
2064,2443,2444,2485,2484,2730,2731,2772,2771
2065,2444,2445,2486,2485,2731,2732,2773,2772
2066,2445,2446,2487,2486,2732,2733,2774,2773
2067,2446,2447,2488,2487,2733,2734,2775,2774
2068,2447,2448,2489,2488,2734,2735,2776,2775
2069,2448,2449,2490,2489,2735,2736,2777,2776
2070,2449,2450,2491,2490,2736,2737,2778,2777
2071,2450,2451,2492,2491,2737,2738,2779,2778
2072,2451,2452,2493,2492,2738,2739,2780,2779
2073,2452,2453,2494,2493,2739,2740,2781,2780
2074,2453,2454,2495,2494,2740,2741,2782,2781
2075,2454,2455,2496,2495,2741,2742,2783,2782
2076,2455,2456,2497,2496,2742,2743,2784,2783
2077,2456,2457,2498,2497,2743,2744,2785,2784
2078,2457,2458,2499,2498,2744,2745,2786,2785
2079,2458,2459,2500,2499,2745,2746,2787,2786
2080,2459,2460,2501,2500,2746,2747,2788,2787
2081,2461,2462,2503,2502,2748,2749,2790,2789
2082,2462,2463,2504,2503,2749,2750,2791,2790
2083,2463,2464,2505,2504,2750,2751,2792,2791
2084,2464,2465,2506,2505,2751,2752,2793,2792
2085,2465,2466,2507,2506,2752,2753,2794,2793
2086,2466,2467,2508,2507,2753,2754,2795,2794
2087,2467,2468,2509,2508,2754,2755,2796,2795
2088,2468,2469,2510,2509,2755,2756,2797,2796
2089,2469,2470,2511,2510,2756,2757,2798,2797
2090,2470,2471,2512,2511,2757,2758,2799,2798
2091,2471,2472,2513,2512,2758,2759,2800,2799
2092,2472,2473,2514,2513,2759,2760,2801,2800
2093,2473,2474,2515,2514,2760,2761,2802,2801
2094,2474,2475,2516,2515,2761,2762,2803,2802
2095,2475,2476,2517,2516,2762,2763,2804,2803
2096,2476,2477,2518,2517,2763,2764,2805,2804
2097,2477,2478,2519,2518,2764,2765,2806,2805
2098,2478,2479,2520,2519,2765,2766,2807,2806
2099,2479,2480,2521,2520,2766,2767,2808,2807
2100,2480,2481,2522,2521,2767,2768,2809,2808
2101,2481,2482,2523,2522,2768,2769,2810,2809
2102,2482,2483,2524,2523,2769,2770,2811,2810
2103,2483,2484,2525,2524,2770,2771,2812,2811
2104,2484,2485,2526,2525,2771,2772,2813,2812
2105,2485,2486,2527,2526,2772,2773,2814,2813
2106,2486,2487,2528,2527,2773,2774,2815,2814
2107,2487,2488,2529,2528,2774,2775,2816,2815
2108,2488,2489,2530,2529,2775,2776,2817,2816
2109,2489,2490,2531,2530,2776,2777,2818,2817
2110,2490,2491,2532,2531,2777,2778,2819,2818
2111,2491,2492,2533,2532,2778,2779,2820,2819
2112,2492,2493,2534,2533,2779,2780,2821,2820
2113,2493,2494,2535,2534,2780,2781,2822,2821
2114,2494,2495,2536,2535,2781,2782,2823,2822
2115,2495,2496,2537,2536,2782,2783,2824,2823
2116,2496,2497,2538,2537,2783,2784,2825,2824
2117,2497,2498,2539,2538,2784,2785,2826,2825
2118,2498,2499,2540,2539,2785,2786,2827,2826
2119,2499,2500,2541,2540,2786,2787,2828,2827
2120,2500,2501,2542,2541,2787,2788,2829,2828
2121,2502,2503,2544,2543,2789,2790,2831,2830
2122,2503,2504,2545,2544,2790,2791,2832,2831
2123,2504,2505,2546,2545,2791,2792,2833,2832
2124,2505,2506,2547,2546,2792,2793,2834,2833
2125,2506,2507,2548,2547,2793,2794,2835,2834
2126,2507,2508,2549,2548,2794,2795,2836,2835
2127,2508,2509,2550,2549,2795,2796,2837,2836
2128,2509,2510,2551,2550,2796,2797,2838,2837
2129,2510,2511,2552,2551,2797,2798,2839,2838
2130,2511,2512,2553,2552,2798,2799,2840,2839
2131,2512,2513,2554,2553,2799,2800,2841,2840
2132,2513,2514,2555,2554,2800,2801,2842,2841
2133,2514,2515,2556,2555,2801,2802,2843,2842
2134,2515,2516,2557,2556,2802,2803,2844,2843
2135,2516,2517,2558,2557,2803,2804,2845,2844
2136,2517,2518,2559,2558,2804,2805,2846,2845
2137,2518,2519,2560,2559,2805,2806,2847,2846
2138,2519,2520,2561,2560,2806,2807,2848,2847
2139,2520,2521,2562,2561,2807,2808,2849,2848
2140,2521,2522,2563,2562,2808,2809,2850,2849
2141,2522,2523,2564,2563,2809,2810,2851,2850
2142,2523,2524,2565,2564,2810,2811,2852,2851
2143,2524,2525,2566,2565,2811,2812,2853,2852
2144,2525,2526,2567,2566,2812,2813,2854,2853
2145,2526,2527,2568,2567,2813,2814,2855,2854
2146,2527,2528,2569,2568,2814,2815,2856,2855
2147,2528,2529,2570,2569,2815,2816,2857,2856
2148,2529,2530,2571,2570,2816,2817,2858,2857
2149,2530,2531,2572,2571,2817,2818,2859,2858
2150,2531,2532,2573,2572,2818,2819,2860,2859
2151,2532,2533,2574,2573,2819,2820,2861,2860
2152,2533,2534,2575,2574,2820,2821,2862,2861
2153,2534,2535,2576,2575,2821,2822,2863,2862
2154,2535,2536,2577,2576,2822,2823,2864,2863
2155,2536,2537,2578,2577,2823,2824,2865,2864
2156,2537,2538,2579,2578,2824,2825,2866,2865
2157,2538,2539,2580,2579,2825,2826,2867,2866
2158,2539,2540,2581,2580,2826,2827,2868,2867
2159,2540,2541,2582,2581,2827,2828,2869,2868
2160,2541,2542,2583,2582,2828,2829,2870,2869
2161,2584,2585,2626,2625,2871,2872,2913,2912
2162,2585,2586,2627,2626,2872,2873,2914,2913
2163,2586,2587,2628,2627,2873,2874,2915,2914
2164,2587,2588,2629,2628,2874,2875,2916,2915
2165,2588,2589,2630,2629,2875,2876,2917,2916
2166,2589,2590,2631,2630,2876,2877,2918,2917
2167,2590,2591,2632,2631,2877,2878,2919,2918
2168,2591,2592,2633,2632,2878,2879,2920,2919
2169,2592,2593,2634,2633,2879,2880,2921,2920
2170,2593,2594,2635,2634,2880,2881,2922,2921
2171,2594,2595,2636,2635,2881,2882,2923,2922
2172,2595,2596,2637,2636,2882,2883,2924,2923
2173,2596,2597,2638,2637,2883,2884,2925,2924
2174,2597,2598,2639,2638,2884,2885,2926,2925
2175,2598,2599,2640,2639,2885,2886,2927,2926
2176,2599,2600,2641,2640,2886,2887,2928,2927
2177,2600,2601,2642,2641,2887,2888,2929,2928
2178,2601,2602,2643,2642,2888,2889,2930,2929
2179,2602,2603,2644,2643,2889,2890,2931,2930
2180,2603,2604,2645,2644,2890,2891,2932,2931
2181,2604,2605,2646,2645,2891,2892,2933,2932
2182,2605,2606,2647,2646,2892,2893,2934,2933
2183,2606,2607,2648,2647,2893,2894,2935,2934
2184,2607,2608,2649,2648,2894,2895,2936,2935
2185,2608,2609,2650,2649,2895,2896,2937,2936
2186,2609,2610,2651,2650,2896,2897,2938,2937
2187,2610,2611,2652,2651,2897,2898,2939,2938
2188,2611,2612,2653,2652,2898,2899,2940,2939
2189,2612,2613,2654,2653,2899,2900,2941,2940
2190,2613,2614,2655,2654,2900,2901,2942,2941
2191,2614,2615,2656,2655,2901,2902,2943,2942
2192,2615,2616,2657,2656,2902,2903,2944,2943
2193,2616,2617,2658,2657,2903,2904,2945,2944
2194,2617,2618,2659,2658,2904,2905,2946,2945
2195,2618,2619,2660,2659,2905,2906,2947,2946
2196,2619,2620,2661,2660,2906,2907,2948,2947
2197,2620,2621,2662,2661,2907,2908,2949,2948
2198,2621,2622,2663,2662,2908,2909,2950,2949
2199,2622,2623,2664,2663,2909,2910,2951,2950
2200,2623,2624,2665,2664,2910,2911,2952,2951
2201,2625,2626,2667,2666,2912,2913,2954,2953
2202,2626,2627,2668,2667,2913,2914,2955,2954
2203,2627,2628,2669,2668,2914,2915,2956,2955
2204,2628,2629,2670,2669,2915,2916,2957,2956
2205,2629,2630,2671,2670,2916,2917,2958,2957
2206,2630,2631,2672,2671,2917,2918,2959,2958
2207,2631,2632,2673,2672,2918,2919,2960,2959
2208,2632,2633,2674,2673,2919,2920,2961,2960
2209,2633,2634,2675,2674,2920,2921,2962,2961
2210,2634,2635,2676,2675,2921,2922,2963,2962
2211,2635,2636,2677,2676,2922,2923,2964,2963
2212,2636,2637,2678,2677,2923,2924,2965,2964
2213,2637,2638,2679,2678,2924,2925,2966,2965
2214,2638,2639,2680,2679,2925,2926,2967,2966
2215,2639,2640,2681,2680,2926,2927,2968,2967
2216,2640,2641,2682,2681,2927,2928,2969,2968
2217,2641,2642,2683,2682,2928,2929,2970,2969
2218,2642,2643,2684,2683,2929,2930,2971,2970
2219,2643,2644,2685,2684,2930,2931,2972,2971
2220,2644,2645,2686,2685,2931,2932,2973,2972
2221,2645,2646,2687,2686,2932,2933,2974,2973
2222,2646,2647,2688,2687,2933,2934,2975,2974
2223,2647,2648,2689,2688,2934,2935,2976,2975
2224,2648,2649,2690,2689,2935,2936,2977,2976
2225,2649,2650,2691,2690,2936,2937,2978,2977
2226,2650,2651,2692,2691,2937,2938,2979,2978
2227,2651,2652,2693,2692,2938,2939,2980,2979
2228,2652,2653,2694,2693,2939,2940,2981,2980
2229,2653,2654,2695,2694,2940,2941,2982,2981
2230,2654,2655,2696,2695,2941,2942,2983,2982
2231,2655,2656,2697,2696,2942,2943,2984,2983
2232,2656,2657,2698,2697,2943,2944,2985,2984
2233,2657,2658,2699,2698,2944,2945,2986,2985
2234,2658,2659,2700,2699,2945,2946,2987,2986
2235,2659,2660,2701,2700,2946,2947,2988,2987
2236,2660,2661,2702,2701,2947,2948,2989,2988
2237,2661,2662,2703,2702,2948,2949,2990,2989
2238,2662,2663,2704,2703,2949,2950,2991,2990
2239,2663,2664,2705,2704,2950,2951,2992,2991
2240,2664,2665,2706,2705,2951,2952,2993,2992
2241,2666,2667,2708,2707,2953,2954,2995,2994
2242,2667,2668,2709,2708,2954,2955,2996,2995
2243,2668,2669,2710,2709,2955,2956,2997,2996
2244,2669,2670,2711,2710,2956,2957,2998,2997
2245,2670,2671,2712,2711,2957,2958,2999,2998
2246,2671,2672,2713,2712,2958,2959,3000,2999
2247,2672,2673,2714,2713,2959,2960,3001,3000
2248,2673,2674,2715,2714,2960,2961,3002,3001
2249,2674,2675,2716,2715,2961,2962,3003,3002
2250,2675,2676,2717,2716,2962,2963,3004,3003
2251,2676,2677,2718,2717,2963,2964,3005,3004
2252,2677,2678,2719,2718,2964,2965,3006,3005
2253,2678,2679,2720,2719,2965,2966,3007,3006
2254,2679,2680,2721,2720,2966,2967,3008,3007
2255,2680,2681,2722,2721,2967,2968,3009,3008
2256,2681,2682,2723,2722,2968,2969,3010,3009
2257,2682,2683,2724,2723,2969,2970,3011,3010
2258,2683,2684,2725,2724,2970,2971,3012,3011
2259,2684,2685,2726,2725,2971,2972,3013,3012
2260,2685,2686,2727,2726,2972,2973,3014,3013
2261,2686,2687,2728,2727,2973,2974,3015,3014
2262,2687,2688,2729,2728,2974,2975,3016,3015
2263,2688,2689,2730,2729,2975,2976,3017,3016
2264,2689,2690,2731,2730,2976,2977,3018,3017
2265,2690,2691,2732,2731,2977,2978,3019,3018
2266,2691,2692,2733,2732,2978,2979,3020,3019
2267,2692,2693,2734,2733,2979,2980,3021,3020
2268,2693,2694,2735,2734,2980,2981,3022,3021
2269,2694,2695,2736,2735,2981,2982,3023,3022
2270,2695,2696,2737,2736,2982,2983,3024,3023
2271,2696,2697,2738,2737,2983,2984,3025,3024
2272,2697,2698,2739,2738,2984,2985,3026,3025
2273,2698,2699,2740,2739,2985,2986,3027,3026
2274,2699,2700,2741,2740,2986,2987,3028,3027
2275,2700,2701,2742,2741,2987,2988,3029,3028
2276,2701,2702,2743,2742,2988,2989,3030,3029
2277,2702,2703,2744,2743,2989,2990,3031,3030
2278,2703,2704,2745,2744,2990,2991,3032,3031
2279,2704,2705,2746,2745,2991,2992,3033,3032
2280,2705,2706,2747,2746,2992,2993,3034,3033
2281,2707,2708,2749,2748,2994,2995,3036,3035
2282,2708,2709,2750,2749,2995,2996,3037,3036
2283,2709,2710,2751,2750,2996,2997,3038,3037
2284,2710,2711,2752,2751,2997,2998,3039,3038
2285,2711,2712,2753,2752,2998,2999,3040,3039
2286,2712,2713,2754,2753,2999,3000,3041,3040
2287,2713,2714,2755,2754,3000,3001,3042,3041
2288,2714,2715,2756,2755,3001,3002,3043,3042
2289,2715,2716,2757,2756,3002,3003,3044,3043
2290,2716,2717,2758,2757,3003,3004,3045,3044
2291,2717,2718,2759,2758,3004,3005,3046,3045
2292,2718,2719,2760,2759,3005,3006,3047,3046
2293,2719,2720,2761,2760,3006,3007,3048,3047
2294,2720,2721,2762,2761,3007,3008,3049,3048
2295,2721,2722,2763,2762,3008,3009,3050,3049
2296,2722,2723,2764,2763,3009,3010,3051,3050
2297,2723,2724,2765,2764,3010,3011,3052,3051
2298,2724,2725,2766,2765,3011,3012,3053,3052
2299,2725,2726,2767,2766,3012,3013,3054,3053
2300,2726,2727,2768,2767,3013,3014,3055,3054
2301,2727,2728,2769,2768,3014,3015,3056,3055
2302,2728,2729,2770,2769,3015,3016,3057,3056
2303,2729,2730,2771,2770,3016,3017,3058,3057
2304,2730,2731,2772,2771,3017,3018,3059,3058
2305,2731,2732,2773,2772,3018,3019,3060,3059
2306,2732,2733,2774,2773,3019,3020,3061,3060
2307,2733,2734,2775,2774,3020,3021,3062,3061
2308,2734,2735,2776,2775,3021,3022,3063,3062
2309,2735,2736,2777,2776,3022,3023,3064,3063
2310,2736,2737,2778,2777,3023,3024,3065,3064
2311,2737,2738,2779,2778,3024,3025,3066,3065
2312,2738,2739,2780,2779,3025,3026,3067,3066
2313,2739,2740,2781,2780,3026,3027,3068,3067
2314,2740,2741,2782,2781,3027,3028,3069,3068
2315,2741,2742,2783,2782,3028,3029,3070,3069
2316,2742,2743,2784,2783,3029,3030,3071,3070
2317,2743,2744,2785,2784,3030,3031,3072,3071
2318,2744,2745,2786,2785,3031,3032,3073,3072
2319,2745,2746,2787,2786,3032,3033,3074,3073
2320,2746,2747,2788,2787,3033,3034,3075,3074
2321,2748,2749,2790,2789,3035,3036,3077,3076
2322,2749,2750,2791,2790,3036,3037,3078,3077
2323,2750,2751,2792,2791,3037,3038,3079,3078
2324,2751,2752,2793,2792,3038,3039,3080,3079
2325,2752,2753,2794,2793,3039,3040,3081,3080
2326,2753,2754,2795,2794,3040,3041,3082,3081
2327,2754,2755,2796,2795,3041,3042,3083,3082
2328,2755,2756,2797,2796,3042,3043,3084,3083
2329,2756,2757,2798,2797,3043,3044,3085,3084
2330,2757,2758,2799,2798,3044,3045,3086,3085
2331,2758,2759,2800,2799,3045,3046,3087,3086
2332,2759,2760,2801,2800,3046,3047,3088,3087
2333,2760,2761,2802,2801,3047,3048,3089,3088
2334,2761,2762,2803,2802,3048,3049,3090,3089
2335,2762,2763,2804,2803,3049,3050,3091,3090
2336,2763,2764,2805,2804,3050,3051,3092,3091
2337,2764,2765,2806,2805,3051,3052,3093,3092
2338,2765,2766,2807,2806,3052,3053,3094,3093
2339,2766,2767,2808,2807,3053,3054,3095,3094
2340,2767,2768,2809,2808,3054,3055,3096,3095
2341,2768,2769,2810,2809,3055,3056,3097,3096
2342,2769,2770,2811,2810,3056,3057,3098,3097
2343,2770,2771,2812,2811,3057,3058,3099,3098
2344,2771,2772,2813,2812,3058,3059,3100,3099
2345,2772,2773,2814,2813,3059,3060,3101,3100
2346,2773,2774,2815,2814,3060,3061,3102,3101
2347,2774,2775,2816,2815,3061,3062,3103,3102
2348,2775,2776,2817,2816,3062,3063,3104,3103
2349,2776,2777,2818,2817,3063,3064,3105,3104
2350,2777,2778,2819,2818,3064,3065,3106,3105
2351,2778,2779,2820,2819,3065,3066,3107,3106
2352,2779,2780,2821,2820,3066,3067,3108,3107
2353,2780,2781,2822,2821,3067,3068,3109,3108
2354,2781,2782,2823,2822,3068,3069,3110,3109
2355,2782,2783,2824,2823,3069,3070,3111,3110
2356,2783,2784,2825,2824,3070,3071,3112,3111
2357,2784,2785,2826,2825,3071,3072,3113,3112
2358,2785,2786,2827,2826,3072,3073,3114,3113
2359,2786,2787,2828,2827,3073,3074,3115,3114
2360,2787,2788,2829,2828,3074,3075,3116,3115
2361,2789,2790,2831,2830,3076,3077,3118,3117
2362,2790,2791,2832,2831,3077,3078,3119,3118
2363,2791,2792,2833,2832,3078,3079,3120,3119
2364,2792,2793,2834,2833,3079,3080,3121,3120
2365,2793,2794,2835,2834,3080,3081,3122,3121
2366,2794,2795,2836,2835,3081,3082,3123,3122
2367,2795,2796,2837,2836,3082,3083,3124,3123
2368,2796,2797,2838,2837,3083,3084,3125,3124
2369,2797,2798,2839,2838,3084,3085,3126,3125
2370,2798,2799,2840,2839,3085,3086,3127,3126
2371,2799,2800,2841,2840,3086,3087,3128,3127
2372,2800,2801,2842,2841,3087,3088,3129,3128
2373,2801,2802,2843,2842,3088,3089,3130,3129
2374,2802,2803,2844,2843,3089,3090,3131,3130
2375,2803,2804,2845,2844,3090,3091,3132,3131
2376,2804,2805,2846,2845,3091,3092,3133,3132
2377,2805,2806,2847,2846,3092,3093,3134,3133
2378,2806,2807,2848,2847,3093,3094,3135,3134
2379,2807,2808,2849,2848,3094,3095,3136,3135
2380,2808,2809,2850,2849,3095,3096,3137,3136
2381,2809,2810,2851,2850,3096,3097,3138,3137
2382,2810,2811,2852,2851,3097,3098,3139,3138
2383,2811,2812,2853,2852,3098,3099,3140,3139
2384,2812,2813,2854,2853,3099,3100,3141,3140
2385,2813,2814,2855,2854,3100,3101,3142,3141
2386,2814,2815,2856,2855,3101,3102,3143,3142
2387,2815,2816,2857,2856,3102,3103,3144,3143
2388,2816,2817,2858,2857,3103,3104,3145,3144
2389,2817,2818,2859,2858,3104,3105,3146,3145
2390,2818,2819,2860,2859,3105,3106,3147,3146
2391,2819,2820,2861,2860,3106,3107,3148,3147
2392,2820,2821,2862,2861,3107,3108,3149,3148
2393,2821,2822,2863,2862,3108,3109,3150,3149
2394,2822,2823,2864,2863,3109,3110,3151,3150
2395,2823,2824,2865,2864,3110,3111,3152,3151
2396,2824,2825,2866,2865,3111,3112,3153,3152
2397,2825,2826,2867,2866,3112,3113,3154,3153
2398,2826,2827,2868,2867,3113,3114,3155,3154
2399,2827,2828,2869,2868,3114,3115,3156,3155
2400,2828,2829,2870,2869,3115,3116,3157,3156
2401,2871,2872,2913,2912,3158,3159,3200,3199
2402,2872,2873,2914,2913,3159,3160,3201,3200
2403,2873,2874,2915,2914,3160,3161,3202,3201
2404,2874,2875,2916,2915,3161,3162,3203,3202
2405,2875,2876,2917,2916,3162,3163,3204,3203
2406,2876,2877,2918,2917,3163,3164,3205,3204
2407,2877,2878,2919,2918,3164,3165,3206,3205
2408,2878,2879,2920,2919,3165,3166,3207,3206
2409,2879,2880,2921,2920,3166,3167,3208,3207
2410,2880,2881,2922,2921,3167,3168,3209,3208
2411,2881,2882,2923,2922,3168,3169,3210,3209
2412,2882,2883,2924,2923,3169,3170,3211,3210
2413,2883,2884,2925,2924,3170,3171,3212,3211
2414,2884,2885,2926,2925,3171,3172,3213,3212
2415,2885,2886,2927,2926,3172,3173,3214,3213
2416,2886,2887,2928,2927,3173,3174,3215,3214
2417,2887,2888,2929,2928,3174,3175,3216,3215
2418,2888,2889,2930,2929,3175,3176,3217,3216
2419,2889,2890,2931,2930,3176,3177,3218,3217
2420,2890,2891,2932,2931,3177,3178,3219,3218
2421,2891,2892,2933,2932,3178,3179,3220,3219
2422,2892,2893,2934,2933,3179,3180,3221,3220
2423,2893,2894,2935,2934,3180,3181,3222,3221
2424,2894,2895,2936,2935,3181,3182,3223,3222
2425,2895,2896,2937,2936,3182,3183,3224,3223
2426,2896,2897,2938,2937,3183,3184,3225,3224
2427,2897,2898,2939,2938,3184,3185,3226,3225
2428,2898,2899,2940,2939,3185,3186,3227,3226
2429,2899,2900,2941,2940,3186,3187,3228,3227
2430,2900,2901,2942,2941,3187,3188,3229,3228
2431,2901,2902,2943,2942,3188,3189,3230,3229
2432,2902,2903,2944,2943,3189,3190,3231,3230
2433,2903,2904,2945,2944,3190,3191,3232,3231
2434,2904,2905,2946,2945,3191,3192,3233,3232
2435,2905,2906,2947,2946,3192,3193,3234,3233
2436,2906,2907,2948,2947,3193,3194,3235,3234
2437,2907,2908,2949,2948,3194,3195,3236,3235
2438,2908,2909,2950,2949,3195,3196,3237,3236
2439,2909,2910,2951,2950,3196,3197,3238,3237
2440,2910,2911,2952,2951,3197,3198,3239,3238
2441,2912,2913,2954,2953,3199,3200,3241,3240
2442,2913,2914,2955,2954,3200,3201,3242,3241
2443,2914,2915,2956,2955,3201,3202,3243,3242
2444,2915,2916,2957,2956,3202,3203,3244,3243
2445,2916,2917,2958,2957,3203,3204,3245,3244
2446,2917,2918,2959,2958,3204,3205,3246,3245
2447,2918,2919,2960,2959,3205,3206,3247,3246
2448,2919,2920,2961,2960,3206,3207,3248,3247
2449,2920,2921,2962,2961,3207,3208,3249,3248
2450,2921,2922,2963,2962,3208,3209,3250,3249
2451,2922,2923,2964,2963,3209,3210,3251,3250
2452,2923,2924,2965,2964,3210,3211,3252,3251
2453,2924,2925,2966,2965,3211,3212,3253,3252
2454,2925,2926,2967,2966,3212,3213,3254,3253
2455,2926,2927,2968,2967,3213,3214,3255,3254
2456,2927,2928,2969,2968,3214,3215,3256,3255
2457,2928,2929,2970,2969,3215,3216,3257,3256
2458,2929,2930,2971,2970,3216,3217,3258,3257
2459,2930,2931,2972,2971,3217,3218,3259,3258
2460,2931,2932,2973,2972,3218,3219,3260,3259
2461,2932,2933,2974,2973,3219,3220,3261,3260
2462,2933,2934,2975,2974,3220,3221,3262,3261
2463,2934,2935,2976,2975,3221,3222,3263,3262
2464,2935,2936,2977,2976,3222,3223,3264,3263
2465,2936,2937,2978,2977,3223,3224,3265,3264
2466,2937,2938,2979,2978,3224,3225,3266,3265
2467,2938,2939,2980,2979,3225,3226,3267,3266
2468,2939,2940,2981,2980,3226,3227,3268,3267
2469,2940,2941,2982,2981,3227,3228,3269,3268
2470,2941,2942,2983,2982,3228,3229,3270,3269
2471,2942,2943,2984,2983,3229,3230,3271,3270
2472,2943,2944,2985,2984,3230,3231,3272,3271
2473,2944,2945,2986,2985,3231,3232,3273,3272
2474,2945,2946,2987,2986,3232,3233,3274,3273
2475,2946,2947,2988,2987,3233,3234,3275,3274
2476,2947,2948,2989,2988,3234,3235,3276,3275
2477,2948,2949,2990,2989,3235,3236,3277,3276
2478,2949,2950,2991,2990,3236,3237,3278,3277
2479,2950,2951,2992,2991,3237,3238,3279,3278
2480,2951,2952,2993,2992,3238,3239,3280,3279
2481,2953,2954,2995,2994,3240,3241,3282,3281
2482,2954,2955,2996,2995,3241,3242,3283,3282
2483,2955,2956,2997,2996,3242,3243,3284,3283
2484,2956,2957,2998,2997,3243,3244,3285,3284
2485,2957,2958,2999,2998,3244,3245,3286,3285
2486,2958,2959,3000,2999,3245,3246,3287,3286
2487,2959,2960,3001,3000,3246,3247,3288,3287
2488,2960,2961,3002,3001,3247,3248,3289,3288
2489,2961,2962,3003,3002,3248,3249,3290,3289
2490,2962,2963,3004,3003,3249,3250,3291,3290
2491,2963,2964,3005,3004,3250,3251,3292,3291
2492,2964,2965,3006,3005,3251,3252,3293,3292
2493,2965,2966,3007,3006,3252,3253,3294,3293
2494,2966,2967,3008,3007,3253,3254,3295,3294
2495,2967,2968,3009,3008,3254,3255,3296,3295
2496,2968,2969,3010,3009,3255,3256,3297,3296
2497,2969,2970,3011,3010,3256,3257,3298,3297
2498,2970,2971,3012,3011,3257,3258,3299,3298
2499,2971,2972,3013,3012,3258,3259,3300,3299
2500,2972,2973,3014,3013,3259,3260,3301,3300
2501,2973,2974,3015,3014,3260,3261,3302,3301
2502,2974,2975,3016,3015,3261,3262,3303,3302
2503,2975,2976,3017,3016,3262,3263,3304,3303
2504,2976,2977,3018,3017,3263,3264,3305,3304
2505,2977,2978,3019,3018,3264,3265,3306,3305
2506,2978,2979,3020,3019,3265,3266,3307,3306
2507,2979,2980,3021,3020,3266,3267,3308,3307
2508,2980,2981,3022,3021,3267,3268,3309,3308
2509,2981,2982,3023,3022,3268,3269,3310,3309
2510,2982,2983,3024,3023,3269,3270,3311,3310
2511,2983,2984,3025,3024,3270,3271,3312,3311
2512,2984,2985,3026,3025,3271,3272,3313,3312
2513,2985,2986,3027,3026,3272,3273,3314,3313
2514,2986,2987,3028,3027,3273,3274,3315,3314
2515,2987,2988,3029,3028,3274,3275,3316,3315
2516,2988,2989,3030,3029,3275,3276,3317,3316
2517,2989,2990,3031,3030,3276,3277,3318,3317
2518,2990,2991,3032,3031,3277,3278,3319,3318
2519,2991,2992,3033,3032,3278,3279,3320,3319
2520,2992,2993,3034,3033,3279,3280,3321,3320
2521,2994,2995,3036,3035,3281,3282,3323,3322
2522,2995,2996,3037,3036,3282,3283,3324,3323
2523,2996,2997,3038,3037,3283,3284,3325,3324
2524,2997,2998,3039,3038,3284,3285,3326,3325
2525,2998,2999,3040,3039,3285,3286,3327,3326
2526,2999,3000,3041,3040,3286,3287,3328,3327
2527,3000,3001,3042,3041,3287,3288,3329,3328
2528,3001,3002,3043,3042,3288,3289,3330,3329
2529,3002,3003,3044,3043,3289,3290,3331,3330
2530,3003,3004,3045,3044,3290,3291,3332,3331
2531,3004,3005,3046,3045,3291,3292,3333,3332
2532,3005,3006,3047,3046,3292,3293,3334,3333
2533,3006,3007,3048,3047,3293,3294,3335,3334
2534,3007,3008,3049,3048,3294,3295,3336,3335
2535,3008,3009,3050,3049,3295,3296,3337,3336
2536,3009,3010,3051,3050,3296,3297,3338,3337
2537,3010,3011,3052,3051,3297,3298,3339,3338
2538,3011,3012,3053,3052,3298,3299,3340,3339
2539,3012,3013,3054,3053,3299,3300,3341,3340
2540,3013,3014,3055,3054,3300,3301,3342,3341
2541,3014,3015,3056,3055,3301,3302,3343,3342
2542,3015,3016,3057,3056,3302,3303,3344,3343
2543,3016,3017,3058,3057,3303,3304,3345,3344
2544,3017,3018,3059,3058,3304,3305,3346,3345
2545,3018,3019,3060,3059,3305,3306,3347,3346
2546,3019,3020,3061,3060,3306,3307,3348,3347
2547,3020,3021,3062,3061,3307,3308,3349,3348
2548,3021,3022,3063,3062,3308,3309,3350,3349
2549,3022,3023,3064,3063,3309,3310,3351,3350
2550,3023,3024,3065,3064,3310,3311,3352,3351
2551,3024,3025,3066,3065,3311,3312,3353,3352
2552,3025,3026,3067,3066,3312,3313,3354,3353
2553,3026,3027,3068,3067,3313,3314,3355,3354
2554,3027,3028,3069,3068,3314,3315,3356,3355
2555,3028,3029,3070,3069,3315,3316,3357,3356
2556,3029,3030,3071,3070,3316,3317,3358,3357
2557,3030,3031,3072,3071,3317,3318,3359,3358
2558,3031,3032,3073,3072,3318,3319,3360,3359
2559,3032,3033,3074,3073,3319,3320,3361,3360
2560,3033,3034,3075,3074,3320,3321,3362,3361
2561,3035,3036,3077,3076,3322,3323,3364,3363
2562,3036,3037,3078,3077,3323,3324,3365,3364
2563,3037,3038,3079,3078,3324,3325,3366,3365
2564,3038,3039,3080,3079,3325,3326,3367,3366
2565,3039,3040,3081,3080,3326,3327,3368,3367
2566,3040,3041,3082,3081,3327,3328,3369,3368
2567,3041,3042,3083,3082,3328,3329,3370,3369
2568,3042,3043,3084,3083,3329,3330,3371,3370
2569,3043,3044,3085,3084,3330,3331,3372,3371
2570,3044,3045,3086,3085,3331,3332,3373,3372
2571,3045,3046,3087,3086,3332,3333,3374,3373
2572,3046,3047,3088,3087,3333,3334,3375,3374
2573,3047,3048,3089,3088,3334,3335,3376,3375
2574,3048,3049,3090,3089,3335,3336,3377,3376
2575,3049,3050,3091,3090,3336,3337,3378,3377
2576,3050,3051,3092,3091,3337,3338,3379,3378
2577,3051,3052,3093,3092,3338,3339,3380,3379
2578,3052,3053,3094,3093,3339,3340,3381,3380
2579,3053,3054,3095,3094,3340,3341,3382,3381
2580,3054,3055,3096,3095,3341,3342,3383,3382
2581,3055,3056,3097,3096,3342,3343,3384,3383
2582,3056,3057,3098,3097,3343,3344,3385,3384
2583,3057,3058,3099,3098,3344,3345,3386,3385
2584,3058,3059,3100,3099,3345,3346,3387,3386
2585,3059,3060,3101,3100,3346,3347,3388,3387
2586,3060,3061,3102,3101,3347,3348,3389,3388
2587,3061,3062,3103,3102,3348,3349,3390,3389
2588,3062,3063,3104,3103,3349,3350,3391,3390
2589,3063,3064,3105,3104,3350,3351,3392,3391
2590,3064,3065,3106,3105,3351,3352,3393,3392
2591,3065,3066,3107,3106,3352,3353,3394,3393
2592,3066,3067,3108,3107,3353,3354,3395,3394
2593,3067,3068,3109,3108,3354,3355,3396,3395
2594,3068,3069,3110,3109,3355,3356,3397,3396
2595,3069,3070,3111,3110,3356,3357,3398,3397
2596,3070,3071,3112,3111,3357,3358,3399,3398
2597,3071,3072,3113,3112,3358,3359,3400,3399
2598,3072,3073,3114,3113,3359,3360,3401,3400
2599,3073,3074,3115,3114,3360,3361,3402,3401
2600,3074,3075,3116,3115,3361,3362,3403,3402
2601,3076,3077,3118,3117,3363,3364,3405,3404
2602,3077,3078,3119,3118,3364,3365,3406,3405
2603,3078,3079,3120,3119,3365,3366,3407,3406
2604,3079,3080,3121,3120,3366,3367,3408,3407
2605,3080,3081,3122,3121,3367,3368,3409,3408
2606,3081,3082,3123,3122,3368,3369,3410,3409
2607,3082,3083,3124,3123,3369,3370,3411,3410
2608,3083,3084,3125,3124,3370,3371,3412,3411
2609,3084,3085,3126,3125,3371,3372,3413,3412
2610,3085,3086,3127,3126,3372,3373,3414,3413
2611,3086,3087,3128,3127,3373,3374,3415,3414
2612,3087,3088,3129,3128,3374,3375,3416,3415
2613,3088,3089,3130,3129,3375,3376,3417,3416
2614,3089,3090,3131,3130,3376,3377,3418,3417
2615,3090,3091,3132,3131,3377,3378,3419,3418
2616,3091,3092,3133,3132,3378,3379,3420,3419
2617,3092,3093,3134,3133,3379,3380,3421,3420
2618,3093,3094,3135,3134,3380,3381,3422,3421
2619,3094,3095,3136,3135,3381,3382,3423,3422
2620,3095,3096,3137,3136,3382,3383,3424,3423
2621,3096,3097,3138,3137,3383,3384,3425,3424
2622,3097,3098,3139,3138,3384,3385,3426,3425
2623,3098,3099,3140,3139,3385,3386,3427,3426
2624,3099,3100,3141,3140,3386,3387,3428,3427
2625,3100,3101,3142,3141,3387,3388,3429,3428
2626,3101,3102,3143,3142,3388,3389,3430,3429
2627,3102,3103,3144,3143,3389,3390,3431,3430
2628,3103,3104,3145,3144,3390,3391,3432,3431
2629,3104,3105,3146,3145,3391,3392,3433,3432
2630,3105,3106,3147,3146,3392,3393,3434,3433
2631,3106,3107,3148,3147,3393,3394,3435,3434
2632,3107,3108,3149,3148,3394,3395,3436,3435
2633,3108,3109,3150,3149,3395,3396,3437,3436
2634,3109,3110,3151,3150,3396,3397,3438,3437
2635,3110,3111,3152,3151,3397,3398,3439,3438
2636,3111,3112,3153,3152,3398,3399,3440,3439
2637,3112,3113,3154,3153,3399,3400,3441,3440
2638,3113,3114,3155,3154,3400,3401,3442,3441
2639,3114,3115,3156,3155,3401,3402,3443,3442
2640,3115,3116,3157,3156,3402,3403,3444,3443
2641,3158,3159,3200,3199,3445,3446,3487,3486
2642,3159,3160,3201,3200,3446,3447,3488,3487
2643,3160,3161,3202,3201,3447,3448,3489,3488
2644,3161,3162,3203,3202,3448,3449,3490,3489
2645,3162,3163,3204,3203,3449,3450,3491,3490
2646,3163,3164,3205,3204,3450,3451,3492,3491
2647,3164,3165,3206,3205,3451,3452,3493,3492
2648,3165,3166,3207,3206,3452,3453,3494,3493
2649,3166,3167,3208,3207,3453,3454,3495,3494
2650,3167,3168,3209,3208,3454,3455,3496,3495
2651,3168,3169,3210,3209,3455,3456,3497,3496
2652,3169,3170,3211,3210,3456,3457,3498,3497
2653,3170,3171,3212,3211,3457,3458,3499,3498
2654,3171,3172,3213,3212,3458,3459,3500,3499
2655,3172,3173,3214,3213,3459,3460,3501,3500
2656,3173,3174,3215,3214,3460,3461,3502,3501
2657,3174,3175,3216,3215,3461,3462,3503,3502
2658,3175,3176,3217,3216,3462,3463,3504,3503
2659,3176,3177,3218,3217,3463,3464,3505,3504
2660,3177,3178,3219,3218,3464,3465,3506,3505
2661,3178,3179,3220,3219,3465,3466,3507,3506
2662,3179,3180,3221,3220,3466,3467,3508,3507
2663,3180,3181,3222,3221,3467,3468,3509,3508
2664,3181,3182,3223,3222,3468,3469,3510,3509
2665,3182,3183,3224,3223,3469,3470,3511,3510
2666,3183,3184,3225,3224,3470,3471,3512,3511
2667,3184,3185,3226,3225,3471,3472,3513,3512
2668,3185,3186,3227,3226,3472,3473,3514,3513
2669,3186,3187,3228,3227,3473,3474,3515,3514
2670,3187,3188,3229,3228,3474,3475,3516,3515
2671,3188,3189,3230,3229,3475,3476,3517,3516
2672,3189,3190,3231,3230,3476,3477,3518,3517
2673,3190,3191,3232,3231,3477,3478,3519,3518
2674,3191,3192,3233,3232,3478,3479,3520,3519
2675,3192,3193,3234,3233,3479,3480,3521,3520
2676,3193,3194,3235,3234,3480,3481,3522,3521
2677,3194,3195,3236,3235,3481,3482,3523,3522
2678,3195,3196,3237,3236,3482,3483,3524,3523
2679,3196,3197,3238,3237,3483,3484,3525,3524
2680,3197,3198,3239,3238,3484,3485,3526,3525
2681,3199,3200,3241,3240,3486,3487,3528,3527
2682,3200,3201,3242,3241,3487,3488,3529,3528
2683,3201,3202,3243,3242,3488,3489,3530,3529
2684,3202,3203,3244,3243,3489,3490,3531,3530
2685,3203,3204,3245,3244,3490,3491,3532,3531
2686,3204,3205,3246,3245,3491,3492,3533,3532
2687,3205,3206,3247,3246,3492,3493,3534,3533
2688,3206,3207,3248,3247,3493,3494,3535,3534
2689,3207,3208,3249,3248,3494,3495,3536,3535
2690,3208,3209,3250,3249,3495,3496,3537,3536
2691,3209,3210,3251,3250,3496,3497,3538,3537
2692,3210,3211,3252,3251,3497,3498,3539,3538
2693,3211,3212,3253,3252,3498,3499,3540,3539
2694,3212,3213,3254,3253,3499,3500,3541,3540
2695,3213,3214,3255,3254,3500,3501,3542,3541
2696,3214,3215,3256,3255,3501,3502,3543,3542
2697,3215,3216,3257,3256,3502,3503,3544,3543
2698,3216,3217,3258,3257,3503,3504,3545,3544
2699,3217,3218,3259,3258,3504,3505,3546,3545
2700,3218,3219,3260,3259,3505,3506,3547,3546
2701,3219,3220,3261,3260,3506,3507,3548,3547
2702,3220,3221,3262,3261,3507,3508,3549,3548
2703,3221,3222,3263,3262,3508,3509,3550,3549
2704,3222,3223,3264,3263,3509,3510,3551,3550
2705,3223,3224,3265,3264,3510,3511,3552,3551
2706,3224,3225,3266,3265,3511,3512,3553,3552
2707,3225,3226,3267,3266,3512,3513,3554,3553
2708,3226,3227,3268,3267,3513,3514,3555,3554
2709,3227,3228,3269,3268,3514,3515,3556,3555
2710,3228,3229,3270,3269,3515,3516,3557,3556
2711,3229,3230,3271,3270,3516,3517,3558,3557
2712,3230,3231,3272,3271,3517,3518,3559,3558
2713,3231,3232,3273,3272,3518,3519,3560,3559
2714,3232,3233,3274,3273,3519,3520,3561,3560
2715,3233,3234,3275,3274,3520,3521,3562,3561
2716,3234,3235,3276,3275,3521,3522,3563,3562
2717,3235,3236,3277,3276,3522,3523,3564,3563
2718,3236,3237,3278,3277,3523,3524,3565,3564
2719,3237,3238,3279,3278,3524,3525,3566,3565
2720,3238,3239,3280,3279,3525,3526,3567,3566
2721,3240,3241,3282,3281,3527,3528,3569,3568
2722,3241,3242,3283,3282,3528,3529,3570,3569
2723,3242,3243,3284,3283,3529,3530,3571,3570
2724,3243,3244,3285,3284,3530,3531,3572,3571
2725,3244,3245,3286,3285,3531,3532,3573,3572
2726,3245,3246,3287,3286,3532,3533,3574,3573
2727,3246,3247,3288,3287,3533,3534,3575,3574
2728,3247,3248,3289,3288,3534,3535,3576,3575
2729,3248,3249,3290,3289,3535,3536,3577,3576
2730,3249,3250,3291,3290,3536,3537,3578,3577
2731,3250,3251,3292,3291,3537,3538,3579,3578
2732,3251,3252,3293,3292,3538,3539,3580,3579
2733,3252,3253,3294,3293,3539,3540,3581,3580
2734,3253,3254,3295,3294,3540,3541,3582,3581
2735,3254,3255,3296,3295,3541,3542,3583,3582
2736,3255,3256,3297,3296,3542,3543,3584,3583
2737,3256,3257,3298,3297,3543,3544,3585,3584
2738,3257,3258,3299,3298,3544,3545,3586,3585
2739,3258,3259,3300,3299,3545,3546,3587,3586
2740,3259,3260,3301,3300,3546,3547,3588,3587
2741,3260,3261,3302,3301,3547,3548,3589,3588
2742,3261,3262,3303,3302,3548,3549,3590,3589
2743,3262,3263,3304,3303,3549,3550,3591,3590
2744,3263,3264,3305,3304,3550,3551,3592,3591
2745,3264,3265,3306,3305,3551,3552,3593,3592
2746,3265,3266,3307,3306,3552,3553,3594,3593
2747,3266,3267,3308,3307,3553,3554,3595,3594
2748,3267,3268,3309,3308,3554,3555,3596,3595
2749,3268,3269,3310,3309,3555,3556,3597,3596
2750,3269,3270,3311,3310,3556,3557,3598,3597
2751,3270,3271,3312,3311,3557,3558,3599,3598
2752,3271,3272,3313,3312,3558,3559,3600,3599
2753,3272,3273,3314,3313,3559,3560,3601,3600
2754,3273,3274,3315,3314,3560,3561,3602,3601
2755,3274,3275,3316,3315,3561,3562,3603,3602
2756,3275,3276,3317,3316,3562,3563,3604,3603
2757,3276,3277,3318,3317,3563,3564,3605,3604
2758,3277,3278,3319,3318,3564,3565,3606,3605
2759,3278,3279,3320,3319,3565,3566,3607,3606
2760,3279,3280,3321,3320,3566,3567,3608,3607
2761,3281,3282,3323,3322,3568,3569,3610,3609
2762,3282,3283,3324,3323,3569,3570,3611,3610
2763,3283,3284,3325,3324,3570,3571,3612,3611
2764,3284,3285,3326,3325,3571,3572,3613,3612
2765,3285,3286,3327,3326,3572,3573,3614,3613
2766,3286,3287,3328,3327,3573,3574,3615,3614
2767,3287,3288,3329,3328,3574,3575,3616,3615
2768,3288,3289,3330,3329,3575,3576,3617,3616
2769,3289,3290,3331,3330,3576,3577,3618,3617
2770,3290,3291,3332,3331,3577,3578,3619,3618
2771,3291,3292,3333,3332,3578,3579,3620,3619
2772,3292,3293,3334,3333,3579,3580,3621,3620
2773,3293,3294,3335,3334,3580,3581,3622,3621
2774,3294,3295,3336,3335,3581,3582,3623,3622
2775,3295,3296,3337,3336,3582,3583,3624,3623
2776,3296,3297,3338,3337,3583,3584,3625,3624
2777,3297,3298,3339,3338,3584,3585,3626,3625
2778,3298,3299,3340,3339,3585,3586,3627,3626
2779,3299,3300,3341,3340,3586,3587,3628,3627
2780,3300,3301,3342,3341,3587,3588,3629,3628
2781,3301,3302,3343,3342,3588,3589,3630,3629
2782,3302,3303,3344,3343,3589,3590,3631,3630
2783,3303,3304,3345,3344,3590,3591,3632,3631
2784,3304,3305,3346,3345,3591,3592,3633,3632
2785,3305,3306,3347,3346,3592,3593,3634,3633
2786,3306,3307,3348,3347,3593,3594,3635,3634
2787,3307,3308,3349,3348,3594,3595,3636,3635
2788,3308,3309,3350,3349,3595,3596,3637,3636
2789,3309,3310,3351,3350,3596,3597,3638,3637
2790,3310,3311,3352,3351,3597,3598,3639,3638
2791,3311,3312,3353,3352,3598,3599,3640,3639
2792,3312,3313,3354,3353,3599,3600,3641,3640
2793,3313,3314,3355,3354,3600,3601,3642,3641
2794,3314,3315,3356,3355,3601,3602,3643,3642
2795,3315,3316,3357,3356,3602,3603,3644,3643
2796,3316,3317,3358,3357,3603,3604,3645,3644
2797,3317,3318,3359,3358,3604,3605,3646,3645
2798,3318,3319,3360,3359,3605,3606,3647,3646
2799,3319,3320,3361,3360,3606,3607,3648,3647
2800,3320,3321,3362,3361,3607,3608,3649,3648
2801,3322,3323,3364,3363,3609,3610,3651,3650
2802,3323,3324,3365,3364,3610,3611,3652,3651
2803,3324,3325,3366,3365,3611,3612,3653,3652
2804,3325,3326,3367,3366,3612,3613,3654,3653
2805,3326,3327,3368,3367,3613,3614,3655,3654
2806,3327,3328,3369,3368,3614,3615,3656,3655
2807,3328,3329,3370,3369,3615,3616,3657,3656
2808,3329,3330,3371,3370,3616,3617,3658,3657
2809,3330,3331,3372,3371,3617,3618,3659,3658
2810,3331,3332,3373,3372,3618,3619,3660,3659
2811,3332,3333,3374,3373,3619,3620,3661,3660
2812,3333,3334,3375,3374,3620,3621,3662,3661
2813,3334,3335,3376,3375,3621,3622,3663,3662
2814,3335,3336,3377,3376,3622,3623,3664,3663
2815,3336,3337,3378,3377,3623,3624,3665,3664
2816,3337,3338,3379,3378,3624,3625,3666,3665
2817,3338,3339,3380,3379,3625,3626,3667,3666
2818,3339,3340,3381,3380,3626,3627,3668,3667
2819,3340,3341,3382,3381,3627,3628,3669,3668
2820,3341,3342,3383,3382,3628,3629,3670,3669
2821,3342,3343,3384,3383,3629,3630,3671,3670
2822,3343,3344,3385,3384,3630,3631,3672,3671
2823,3344,3345,3386,3385,3631,3632,3673,3672
2824,3345,3346,3387,3386,3632,3633,3674,3673
2825,3346,3347,3388,3387,3633,3634,3675,3674
2826,3347,3348,3389,3388,3634,3635,3676,3675
2827,3348,3349,3390,3389,3635,3636,3677,3676
2828,3349,3350,3391,3390,3636,3637,3678,3677
2829,3350,3351,3392,3391,3637,3638,3679,3678
2830,3351,3352,3393,3392,3638,3639,3680,3679
2831,3352,3353,3394,3393,3639,3640,3681,3680
2832,3353,3354,3395,3394,3640,3641,3682,3681
2833,3354,3355,3396,3395,3641,3642,3683,3682
2834,3355,3356,3397,3396,3642,3643,3684,3683
2835,3356,3357,3398,3397,3643,3644,3685,3684
2836,3357,3358,3399,3398,3644,3645,3686,3685
2837,3358,3359,3400,3399,3645,3646,3687,3686
2838,3359,3360,3401,3400,3646,3647,3688,3687
2839,3360,3361,3402,3401,3647,3648,3689,3688
2840,3361,3362,3403,3402,3648,3649,3690,3689
2841,3363,3364,3405,3404,3650,3651,3692,3691
2842,3364,3365,3406,3405,3651,3652,3693,3692
2843,3365,3366,3407,3406,3652,3653,3694,3693
2844,3366,3367,3408,3407,3653,3654,3695,3694
2845,3367,3368,3409,3408,3654,3655,3696,3695
2846,3368,3369,3410,3409,3655,3656,3697,3696
2847,3369,3370,3411,3410,3656,3657,3698,3697
2848,3370,3371,3412,3411,3657,3658,3699,3698
2849,3371,3372,3413,3412,3658,3659,3700,3699
2850,3372,3373,3414,3413,3659,3660,3701,3700
2851,3373,3374,3415,3414,3660,3661,3702,3701
2852,3374,3375,3416,3415,3661,3662,3703,3702
2853,3375,3376,3417,3416,3662,3663,3704,3703
2854,3376,3377,3418,3417,3663,3664,3705,3704
2855,3377,3378,3419,3418,3664,3665,3706,3705
2856,3378,3379,3420,3419,3665,3666,3707,3706
2857,3379,3380,3421,3420,3666,3667,3708,3707
2858,3380,3381,3422,3421,3667,3668,3709,3708
2859,3381,3382,3423,3422,3668,3669,3710,3709
2860,3382,3383,3424,3423,3669,3670,3711,3710
2861,3383,3384,3425,3424,3670,3671,3712,3711
2862,3384,3385,3426,3425,3671,3672,3713,3712
2863,3385,3386,3427,3426,3672,3673,3714,3713
2864,3386,3387,3428,3427,3673,3674,3715,3714
2865,3387,3388,3429,3428,3674,3675,3716,3715
2866,3388,3389,3430,3429,3675,3676,3717,3716
2867,3389,3390,3431,3430,3676,3677,3718,3717
2868,3390,3391,3432,3431,3677,3678,3719,3718
2869,3391,3392,3433,3432,3678,3679,3720,3719
2870,3392,3393,3434,3433,3679,3680,3721,3720
2871,3393,3394,3435,3434,3680,3681,3722,3721
2872,3394,3395,3436,3435,3681,3682,3723,3722
2873,3395,3396,3437,3436,3682,3683,3724,3723
2874,3396,3397,3438,3437,3683,3684,3725,3724
2875,3397,3398,3439,3438,3684,3685,3726,3725
2876,3398,3399,3440,3439,3685,3686,3727,3726
2877,3399,3400,3441,3440,3686,3687,3728,3727
2878,3400,3401,3442,3441,3687,3688,3729,3728
2879,3401,3402,3443,3442,3688,3689,3730,3729
2880,3402,3403,3444,3443,3689,3690,3731,3730
2881,3445,3446,3487,3486,3732,3733,3774,3773
2882,3446,3447,3488,3487,3733,3734,3775,3774
2883,3447,3448,3489,3488,3734,3735,3776,3775
2884,3448,3449,3490,3489,3735,3736,3777,3776
2885,3449,3450,3491,3490,3736,3737,3778,3777
2886,3450,3451,3492,3491,3737,3738,3779,3778
2887,3451,3452,3493,3492,3738,3739,3780,3779
2888,3452,3453,3494,3493,3739,3740,3781,3780
2889,3453,3454,3495,3494,3740,3741,3782,3781
2890,3454,3455,3496,3495,3741,3742,3783,3782
2891,3455,3456,3497,3496,3742,3743,3784,3783
2892,3456,3457,3498,3497,3743,3744,3785,3784
2893,3457,3458,3499,3498,3744,3745,3786,3785
2894,3458,3459,3500,3499,3745,3746,3787,3786
2895,3459,3460,3501,3500,3746,3747,3788,3787
2896,3460,3461,3502,3501,3747,3748,3789,3788
2897,3461,3462,3503,3502,3748,3749,3790,3789
2898,3462,3463,3504,3503,3749,3750,3791,3790
2899,3463,3464,3505,3504,3750,3751,3792,3791
2900,3464,3465,3506,3505,3751,3752,3793,3792
2901,3465,3466,3507,3506,3752,3753,3794,3793
2902,3466,3467,3508,3507,3753,3754,3795,3794
2903,3467,3468,3509,3508,3754,3755,3796,3795
2904,3468,3469,3510,3509,3755,3756,3797,3796
2905,3469,3470,3511,3510,3756,3757,3798,3797
2906,3470,3471,3512,3511,3757,3758,3799,3798
2907,3471,3472,3513,3512,3758,3759,3800,3799
2908,3472,3473,3514,3513,3759,3760,3801,3800
2909,3473,3474,3515,3514,3760,3761,3802,3801
2910,3474,3475,3516,3515,3761,3762,3803,3802
2911,3475,3476,3517,3516,3762,3763,3804,3803
2912,3476,3477,3518,3517,3763,3764,3805,3804
2913,3477,3478,3519,3518,3764,3765,3806,3805
2914,3478,3479,3520,3519,3765,3766,3807,3806
2915,3479,3480,3521,3520,3766,3767,3808,3807
2916,3480,3481,3522,3521,3767,3768,3809,3808
2917,3481,3482,3523,3522,3768,3769,3810,3809
2918,3482,3483,3524,3523,3769,3770,3811,3810
2919,3483,3484,3525,3524,3770,3771,3812,3811
2920,3484,3485,3526,3525,3771,3772,3813,3812
2921,3486,3487,3528,3527,3773,3774,3815,3814
2922,3487,3488,3529,3528,3774,3775,3816,3815
2923,3488,3489,3530,3529,3775,3776,3817,3816
2924,3489,3490,3531,3530,3776,3777,3818,3817
2925,3490,3491,3532,3531,3777,3778,3819,3818
2926,3491,3492,3533,3532,3778,3779,3820,3819
2927,3492,3493,3534,3533,3779,3780,3821,3820
2928,3493,3494,3535,3534,3780,3781,3822,3821
2929,3494,3495,3536,3535,3781,3782,3823,3822
2930,3495,3496,3537,3536,3782,3783,3824,3823
2931,3496,3497,3538,3537,3783,3784,3825,3824
2932,3497,3498,3539,3538,3784,3785,3826,3825
2933,3498,3499,3540,3539,3785,3786,3827,3826
2934,3499,3500,3541,3540,3786,3787,3828,3827
2935,3500,3501,3542,3541,3787,3788,3829,3828
2936,3501,3502,3543,3542,3788,3789,3830,3829
2937,3502,3503,3544,3543,3789,3790,3831,3830
2938,3503,3504,3545,3544,3790,3791,3832,3831
2939,3504,3505,3546,3545,3791,3792,3833,3832
2940,3505,3506,3547,3546,3792,3793,3834,3833
2941,3506,3507,3548,3547,3793,3794,3835,3834
2942,3507,3508,3549,3548,3794,3795,3836,3835
2943,3508,3509,3550,3549,3795,3796,3837,3836
2944,3509,3510,3551,3550,3796,3797,3838,3837
2945,3510,3511,3552,3551,3797,3798,3839,3838
2946,3511,3512,3553,3552,3798,3799,3840,3839
2947,3512,3513,3554,3553,3799,3800,3841,3840
2948,3513,3514,3555,3554,3800,3801,3842,3841
2949,3514,3515,3556,3555,3801,3802,3843,3842
2950,3515,3516,3557,3556,3802,3803,3844,3843
2951,3516,3517,3558,3557,3803,3804,3845,3844
2952,3517,3518,3559,3558,3804,3805,3846,3845
2953,3518,3519,3560,3559,3805,3806,3847,3846
2954,3519,3520,3561,3560,3806,3807,3848,3847
2955,3520,3521,3562,3561,3807,3808,3849,3848
2956,3521,3522,3563,3562,3808,3809,3850,3849
2957,3522,3523,3564,3563,3809,3810,3851,3850
2958,3523,3524,3565,3564,3810,3811,3852,3851
2959,3524,3525,3566,3565,3811,3812,3853,3852
2960,3525,3526,3567,3566,3812,3813,3854,3853
2961,3527,3528,3569,3568,3814,3815,3856,3855
2962,3528,3529,3570,3569,3815,3816,3857,3856
2963,3529,3530,3571,3570,3816,3817,3858,3857
2964,3530,3531,3572,3571,3817,3818,3859,3858
2965,3531,3532,3573,3572,3818,3819,3860,3859
2966,3532,3533,3574,3573,3819,3820,3861,3860
2967,3533,3534,3575,3574,3820,3821,3862,3861
2968,3534,3535,3576,3575,3821,3822,3863,3862
2969,3535,3536,3577,3576,3822,3823,3864,3863
2970,3536,3537,3578,3577,3823,3824,3865,3864
2971,3537,3538,3579,3578,3824,3825,3866,3865
2972,3538,3539,3580,3579,3825,3826,3867,3866
2973,3539,3540,3581,3580,3826,3827,3868,3867
2974,3540,3541,3582,3581,3827,3828,3869,3868
2975,3541,3542,3583,3582,3828,3829,3870,3869
2976,3542,3543,3584,3583,3829,3830,3871,3870
2977,3543,3544,3585,3584,3830,3831,3872,3871
2978,3544,3545,3586,3585,3831,3832,3873,3872
2979,3545,3546,3587,3586,3832,3833,3874,3873
2980,3546,3547,3588,3587,3833,3834,3875,3874
2981,3547,3548,3589,3588,3834,3835,3876,3875
2982,3548,3549,3590,3589,3835,3836,3877,3876
2983,3549,3550,3591,3590,3836,3837,3878,3877
2984,3550,3551,3592,3591,3837,3838,3879,3878
2985,3551,3552,3593,3592,3838,3839,3880,3879
2986,3552,3553,3594,3593,3839,3840,3881,3880
2987,3553,3554,3595,3594,3840,3841,3882,3881
2988,3554,3555,3596,3595,3841,3842,3883,3882
2989,3555,3556,3597,3596,3842,3843,3884,3883
2990,3556,3557,3598,3597,3843,3844,3885,3884
2991,3557,3558,3599,3598,3844,3845,3886,3885
2992,3558,3559,3600,3599,3845,3846,3887,3886
2993,3559,3560,3601,3600,3846,3847,3888,3887
2994,3560,3561,3602,3601,3847,3848,3889,3888
2995,3561,3562,3603,3602,3848,3849,3890,3889
2996,3562,3563,3604,3603,3849,3850,3891,3890
2997,3563,3564,3605,3604,3850,3851,3892,3891
2998,3564,3565,3606,3605,3851,3852,3893,3892
2999,3565,3566,3607,3606,3852,3853,3894,3893
3000,3566,3567,3608,3607,3853,3854,3895,3894
3001,3568,3569,3610,3609,3855,3856,3897,3896
3002,3569,3570,3611,3610,3856,3857,3898,3897
3003,3570,3571,3612,3611,3857,3858,3899,3898
3004,3571,3572,3613,3612,3858,3859,3900,3899
3005,3572,3573,3614,3613,3859,3860,3901,3900
3006,3573,3574,3615,3614,3860,3861,3902,3901
3007,3574,3575,3616,3615,3861,3862,3903,3902
3008,3575,3576,3617,3616,3862,3863,3904,3903
3009,3576,3577,3618,3617,3863,3864,3905,3904
3010,3577,3578,3619,3618,3864,3865,3906,3905
3011,3578,3579,3620,3619,3865,3866,3907,3906
3012,3579,3580,3621,3620,3866,3867,3908,3907
3013,3580,3581,3622,3621,3867,3868,3909,3908
3014,3581,3582,3623,3622,3868,3869,3910,3909
3015,3582,3583,3624,3623,3869,3870,3911,3910
3016,3583,3584,3625,3624,3870,3871,3912,3911
3017,3584,3585,3626,3625,3871,3872,3913,3912
3018,3585,3586,3627,3626,3872,3873,3914,3913
3019,3586,3587,3628,3627,3873,3874,3915,3914
3020,3587,3588,3629,3628,3874,3875,3916,3915
3021,3588,3589,3630,3629,3875,3876,3917,3916
3022,3589,3590,3631,3630,3876,3877,3918,3917
3023,3590,3591,3632,3631,3877,3878,3919,3918
3024,3591,3592,3633,3632,3878,3879,3920,3919
3025,3592,3593,3634,3633,3879,3880,3921,3920
3026,3593,3594,3635,3634,3880,3881,3922,3921
3027,3594,3595,3636,3635,3881,3882,3923,3922
3028,3595,3596,3637,3636,3882,3883,3924,3923
3029,3596,3597,3638,3637,3883,3884,3925,3924
3030,3597,3598,3639,3638,3884,3885,3926,3925
3031,3598,3599,3640,3639,3885,3886,3927,3926
3032,3599,3600,3641,3640,3886,3887,3928,3927
3033,3600,3601,3642,3641,3887,3888,3929,3928
3034,3601,3602,3643,3642,3888,3889,3930,3929
3035,3602,3603,3644,3643,3889,3890,3931,3930
3036,3603,3604,3645,3644,3890,3891,3932,3931
3037,3604,3605,3646,3645,3891,3892,3933,3932
3038,3605,3606,3647,3646,3892,3893,3934,3933
3039,3606,3607,3648,3647,3893,3894,3935,3934
3040,3607,3608,3649,3648,3894,3895,3936,3935
3041,3609,3610,3651,3650,3896,3897,3938,3937
3042,3610,3611,3652,3651,3897,3898,3939,3938
3043,3611,3612,3653,3652,3898,3899,3940,3939
3044,3612,3613,3654,3653,3899,3900,3941,3940
3045,3613,3614,3655,3654,3900,3901,3942,3941
3046,3614,3615,3656,3655,3901,3902,3943,3942
3047,3615,3616,3657,3656,3902,3903,3944,3943
3048,3616,3617,3658,3657,3903,3904,3945,3944
3049,3617,3618,3659,3658,3904,3905,3946,3945
3050,3618,3619,3660,3659,3905,3906,3947,3946
3051,3619,3620,3661,3660,3906,3907,3948,3947
3052,3620,3621,3662,3661,3907,3908,3949,3948
3053,3621,3622,3663,3662,3908,3909,3950,3949
3054,3622,3623,3664,3663,3909,3910,3951,3950
3055,3623,3624,3665,3664,3910,3911,3952,3951
3056,3624,3625,3666,3665,3911,3912,3953,3952
3057,3625,3626,3667,3666,3912,3913,3954,3953
3058,3626,3627,3668,3667,3913,3914,3955,3954
3059,3627,3628,3669,3668,3914,3915,3956,3955
3060,3628,3629,3670,3669,3915,3916,3957,3956
3061,3629,3630,3671,3670,3916,3917,3958,3957
3062,3630,3631,3672,3671,3917,3918,3959,3958
3063,3631,3632,3673,3672,3918,3919,3960,3959
3064,3632,3633,3674,3673,3919,3920,3961,3960
3065,3633,3634,3675,3674,3920,3921,3962,3961
3066,3634,3635,3676,3675,3921,3922,3963,3962
3067,3635,3636,3677,3676,3922,3923,3964,3963
3068,3636,3637,3678,3677,3923,3924,3965,3964
3069,3637,3638,3679,3678,3924,3925,3966,3965
3070,3638,3639,3680,3679,3925,3926,3967,3966
3071,3639,3640,3681,3680,3926,3927,3968,3967
3072,3640,3641,3682,3681,3927,3928,3969,3968
3073,3641,3642,3683,3682,3928,3929,3970,3969
3074,3642,3643,3684,3683,3929,3930,3971,3970
3075,3643,3644,3685,3684,3930,3931,3972,3971
3076,3644,3645,3686,3685,3931,3932,3973,3972
3077,3645,3646,3687,3686,3932,3933,3974,3973
3078,3646,3647,3688,3687,3933,3934,3975,3974
3079,3647,3648,3689,3688,3934,3935,3976,3975
3080,3648,3649,3690,3689,3935,3936,3977,3976
3081,3650,3651,3692,3691,3937,3938,3979,3978
3082,3651,3652,3693,3692,3938,3939,3980,3979
3083,3652,3653,3694,3693,3939,3940,3981,3980
3084,3653,3654,3695,3694,3940,3941,3982,3981
3085,3654,3655,3696,3695,3941,3942,3983,3982
3086,3655,3656,3697,3696,3942,3943,3984,3983
3087,3656,3657,3698,3697,3943,3944,3985,3984
3088,3657,3658,3699,3698,3944,3945,3986,3985
3089,3658,3659,3700,3699,3945,3946,3987,3986
3090,3659,3660,3701,3700,3946,3947,3988,3987
3091,3660,3661,3702,3701,3947,3948,3989,3988
3092,3661,3662,3703,3702,3948,3949,3990,3989
3093,3662,3663,3704,3703,3949,3950,3991,3990
3094,3663,3664,3705,3704,3950,3951,3992,3991
3095,3664,3665,3706,3705,3951,3952,3993,3992
3096,3665,3666,3707,3706,3952,3953,3994,3993
3097,3666,3667,3708,3707,3953,3954,3995,3994
3098,3667,3668,3709,3708,3954,3955,3996,3995
3099,3668,3669,3710,3709,3955,3956,3997,3996
3100,3669,3670,3711,3710,3956,3957,3998,3997
3101,3670,3671,3712,3711,3957,3958,3999,3998
3102,3671,3672,3713,3712,3958,3959,4000,3999
3103,3672,3673,3714,3713,3959,3960,4001,4000
3104,3673,3674,3715,3714,3960,3961,4002,4001
3105,3674,3675,3716,3715,3961,3962,4003,4002
3106,3675,3676,3717,3716,3962,3963,4004,4003
3107,3676,3677,3718,3717,3963,3964,4005,4004
3108,3677,3678,3719,3718,3964,3965,4006,4005
3109,3678,3679,3720,3719,3965,3966,4007,4006
3110,3679,3680,3721,3720,3966,3967,4008,4007
3111,3680,3681,3722,3721,3967,3968,4009,4008
3112,3681,3682,3723,3722,3968,3969,4010,4009
3113,3682,3683,3724,3723,3969,3970,4011,4010
3114,3683,3684,3725,3724,3970,3971,4012,4011
3115,3684,3685,3726,3725,3971,3972,4013,4012
3116,3685,3686,3727,3726,3972,3973,4014,4013
3117,3686,3687,3728,3727,3973,3974,4015,4014
3118,3687,3688,3729,3728,3974,3975,4016,4015
3119,3688,3689,3730,3729,3975,3976,4017,4016
3120,3689,3690,3731,3730,3976,3977,4018,4017
3121,3732,3733,3774,3773,4019,4020,4061,4060
3122,3733,3734,3775,3774,4020,4021,4062,4061
3123,3734,3735,3776,3775,4021,4022,4063,4062
3124,3735,3736,3777,3776,4022,4023,4064,4063
3125,3736,3737,3778,3777,4023,4024,4065,4064
3126,3737,3738,3779,3778,4024,4025,4066,4065
3127,3738,3739,3780,3779,4025,4026,4067,4066
3128,3739,3740,3781,3780,4026,4027,4068,4067
3129,3740,3741,3782,3781,4027,4028,4069,4068
3130,3741,3742,3783,3782,4028,4029,4070,4069
3131,3742,3743,3784,3783,4029,4030,4071,4070
3132,3743,3744,3785,3784,4030,4031,4072,4071
3133,3744,3745,3786,3785,4031,4032,4073,4072
3134,3745,3746,3787,3786,4032,4033,4074,4073
3135,3746,3747,3788,3787,4033,4034,4075,4074
3136,3747,3748,3789,3788,4034,4035,4076,4075
3137,3748,3749,3790,3789,4035,4036,4077,4076
3138,3749,3750,3791,3790,4036,4037,4078,4077
3139,3750,3751,3792,3791,4037,4038,4079,4078
3140,3751,3752,3793,3792,4038,4039,4080,4079
3141,3752,3753,3794,3793,4039,4040,4081,4080
3142,3753,3754,3795,3794,4040,4041,4082,4081
3143,3754,3755,3796,3795,4041,4042,4083,4082
3144,3755,3756,3797,3796,4042,4043,4084,4083
3145,3756,3757,3798,3797,4043,4044,4085,4084
3146,3757,3758,3799,3798,4044,4045,4086,4085
3147,3758,3759,3800,3799,4045,4046,4087,4086
3148,3759,3760,3801,3800,4046,4047,4088,4087
3149,3760,3761,3802,3801,4047,4048,4089,4088
3150,3761,3762,3803,3802,4048,4049,4090,4089
3151,3762,3763,3804,3803,4049,4050,4091,4090
3152,3763,3764,3805,3804,4050,4051,4092,4091
3153,3764,3765,3806,3805,4051,4052,4093,4092
3154,3765,3766,3807,3806,4052,4053,4094,4093
3155,3766,3767,3808,3807,4053,4054,4095,4094
3156,3767,3768,3809,3808,4054,4055,4096,4095
3157,3768,3769,3810,3809,4055,4056,4097,4096
3158,3769,3770,3811,3810,4056,4057,4098,4097
3159,3770,3771,3812,3811,4057,4058,4099,4098
3160,3771,3772,3813,3812,4058,4059,4100,4099
3161,3773,3774,3815,3814,4060,4061,4102,4101
3162,3774,3775,3816,3815,4061,4062,4103,4102
3163,3775,3776,3817,3816,4062,4063,4104,4103
3164,3776,3777,3818,3817,4063,4064,4105,4104
3165,3777,3778,3819,3818,4064,4065,4106,4105
3166,3778,3779,3820,3819,4065,4066,4107,4106
3167,3779,3780,3821,3820,4066,4067,4108,4107
3168,3780,3781,3822,3821,4067,4068,4109,4108
3169,3781,3782,3823,3822,4068,4069,4110,4109
3170,3782,3783,3824,3823,4069,4070,4111,4110
3171,3783,3784,3825,3824,4070,4071,4112,4111
3172,3784,3785,3826,3825,4071,4072,4113,4112
3173,3785,3786,3827,3826,4072,4073,4114,4113
3174,3786,3787,3828,3827,4073,4074,4115,4114
3175,3787,3788,3829,3828,4074,4075,4116,4115
3176,3788,3789,3830,3829,4075,4076,4117,4116
3177,3789,3790,3831,3830,4076,4077,4118,4117
3178,3790,3791,3832,3831,4077,4078,4119,4118
3179,3791,3792,3833,3832,4078,4079,4120,4119
3180,3792,3793,3834,3833,4079,4080,4121,4120
3181,3793,3794,3835,3834,4080,4081,4122,4121
3182,3794,3795,3836,3835,4081,4082,4123,4122
3183,3795,3796,3837,3836,4082,4083,4124,4123
3184,3796,3797,3838,3837,4083,4084,4125,4124
3185,3797,3798,3839,3838,4084,4085,4126,4125
3186,3798,3799,3840,3839,4085,4086,4127,4126
3187,3799,3800,3841,3840,4086,4087,4128,4127
3188,3800,3801,3842,3841,4087,4088,4129,4128
3189,3801,3802,3843,3842,4088,4089,4130,4129
3190,3802,3803,3844,3843,4089,4090,4131,4130
3191,3803,3804,3845,3844,4090,4091,4132,4131
3192,3804,3805,3846,3845,4091,4092,4133,4132
3193,3805,3806,3847,3846,4092,4093,4134,4133
3194,3806,3807,3848,3847,4093,4094,4135,4134
3195,3807,3808,3849,3848,4094,4095,4136,4135
3196,3808,3809,3850,3849,4095,4096,4137,4136
3197,3809,3810,3851,3850,4096,4097,4138,4137
3198,3810,3811,3852,3851,4097,4098,4139,4138
3199,3811,3812,3853,3852,4098,4099,4140,4139
3200,3812,3813,3854,3853,4099,4100,4141,4140
3201,3814,3815,3856,3855,4101,4102,4143,4142
3202,3815,3816,3857,3856,4102,4103,4144,4143
3203,3816,3817,3858,3857,4103,4104,4145,4144
3204,3817,3818,3859,3858,4104,4105,4146,4145
3205,3818,3819,3860,3859,4105,4106,4147,4146
3206,3819,3820,3861,3860,4106,4107,4148,4147
3207,3820,3821,3862,3861,4107,4108,4149,4148
3208,3821,3822,3863,3862,4108,4109,4150,4149
3209,3822,3823,3864,3863,4109,4110,4151,4150
3210,3823,3824,3865,3864,4110,4111,4152,4151
3211,3824,3825,3866,3865,4111,4112,4153,4152
3212,3825,3826,3867,3866,4112,4113,4154,4153
3213,3826,3827,3868,3867,4113,4114,4155,4154
3214,3827,3828,3869,3868,4114,4115,4156,4155
3215,3828,3829,3870,3869,4115,4116,4157,4156
3216,3829,3830,3871,3870,4116,4117,4158,4157
3217,3830,3831,3872,3871,4117,4118,4159,4158
3218,3831,3832,3873,3872,4118,4119,4160,4159
3219,3832,3833,3874,3873,4119,4120,4161,4160
3220,3833,3834,3875,3874,4120,4121,4162,4161
3221,3834,3835,3876,3875,4121,4122,4163,4162
3222,3835,3836,3877,3876,4122,4123,4164,4163
3223,3836,3837,3878,3877,4123,4124,4165,4164
3224,3837,3838,3879,3878,4124,4125,4166,4165
3225,3838,3839,3880,3879,4125,4126,4167,4166
3226,3839,3840,3881,3880,4126,4127,4168,4167
3227,3840,3841,3882,3881,4127,4128,4169,4168
3228,3841,3842,3883,3882,4128,4129,4170,4169
3229,3842,3843,3884,3883,4129,4130,4171,4170
3230,3843,3844,3885,3884,4130,4131,4172,4171
3231,3844,3845,3886,3885,4131,4132,4173,4172
3232,3845,3846,3887,3886,4132,4133,4174,4173
3233,3846,3847,3888,3887,4133,4134,4175,4174
3234,3847,3848,3889,3888,4134,4135,4176,4175
3235,3848,3849,3890,3889,4135,4136,4177,4176
3236,3849,3850,3891,3890,4136,4137,4178,4177
3237,3850,3851,3892,3891,4137,4138,4179,4178
3238,3851,3852,3893,3892,4138,4139,4180,4179
3239,3852,3853,3894,3893,4139,4140,4181,4180
3240,3853,3854,3895,3894,4140,4141,4182,4181
3241,3855,3856,3897,3896,4142,4143,4184,4183
3242,3856,3857,3898,3897,4143,4144,4185,4184
3243,3857,3858,3899,3898,4144,4145,4186,4185
3244,3858,3859,3900,3899,4145,4146,4187,4186
3245,3859,3860,3901,3900,4146,4147,4188,4187
3246,3860,3861,3902,3901,4147,4148,4189,4188
3247,3861,3862,3903,3902,4148,4149,4190,4189
3248,3862,3863,3904,3903,4149,4150,4191,4190
3249,3863,3864,3905,3904,4150,4151,4192,4191
3250,3864,3865,3906,3905,4151,4152,4193,4192
3251,3865,3866,3907,3906,4152,4153,4194,4193
3252,3866,3867,3908,3907,4153,4154,4195,4194
3253,3867,3868,3909,3908,4154,4155,4196,4195
3254,3868,3869,3910,3909,4155,4156,4197,4196
3255,3869,3870,3911,3910,4156,4157,4198,4197
3256,3870,3871,3912,3911,4157,4158,4199,4198
3257,3871,3872,3913,3912,4158,4159,4200,4199
3258,3872,3873,3914,3913,4159,4160,4201,4200
3259,3873,3874,3915,3914,4160,4161,4202,4201
3260,3874,3875,3916,3915,4161,4162,4203,4202
3261,3875,3876,3917,3916,4162,4163,4204,4203
3262,3876,3877,3918,3917,4163,4164,4205,4204
3263,3877,3878,3919,3918,4164,4165,4206,4205
3264,3878,3879,3920,3919,4165,4166,4207,4206
3265,3879,3880,3921,3920,4166,4167,4208,4207
3266,3880,3881,3922,3921,4167,4168,4209,4208
3267,3881,3882,3923,3922,4168,4169,4210,4209
3268,3882,3883,3924,3923,4169,4170,4211,4210
3269,3883,3884,3925,3924,4170,4171,4212,4211
3270,3884,3885,3926,3925,4171,4172,4213,4212
3271,3885,3886,3927,3926,4172,4173,4214,4213
3272,3886,3887,3928,3927,4173,4174,4215,4214
3273,3887,3888,3929,3928,4174,4175,4216,4215
3274,3888,3889,3930,3929,4175,4176,4217,4216
3275,3889,3890,3931,3930,4176,4177,4218,4217
3276,3890,3891,3932,3931,4177,4178,4219,4218
3277,3891,3892,3933,3932,4178,4179,4220,4219
3278,3892,3893,3934,3933,4179,4180,4221,4220
3279,3893,3894,3935,3934,4180,4181,4222,4221
3280,3894,3895,3936,3935,4181,4182,4223,4222
3281,3896,3897,3938,3937,4183,4184,4225,4224
3282,3897,3898,3939,3938,4184,4185,4226,4225
3283,3898,3899,3940,3939,4185,4186,4227,4226
3284,3899,3900,3941,3940,4186,4187,4228,4227
3285,3900,3901,3942,3941,4187,4188,4229,4228
3286,3901,3902,3943,3942,4188,4189,4230,4229
3287,3902,3903,3944,3943,4189,4190,4231,4230
3288,3903,3904,3945,3944,4190,4191,4232,4231
3289,3904,3905,3946,3945,4191,4192,4233,4232
3290,3905,3906,3947,3946,4192,4193,4234,4233
3291,3906,3907,3948,3947,4193,4194,4235,4234
3292,3907,3908,3949,3948,4194,4195,4236,4235
3293,3908,3909,3950,3949,4195,4196,4237,4236
3294,3909,3910,3951,3950,4196,4197,4238,4237
3295,3910,3911,3952,3951,4197,4198,4239,4238
3296,3911,3912,3953,3952,4198,4199,4240,4239
3297,3912,3913,3954,3953,4199,4200,4241,4240
3298,3913,3914,3955,3954,4200,4201,4242,4241
3299,3914,3915,3956,3955,4201,4202,4243,4242
3300,3915,3916,3957,3956,4202,4203,4244,4243
3301,3916,3917,3958,3957,4203,4204,4245,4244
3302,3917,3918,3959,3958,4204,4205,4246,4245
3303,3918,3919,3960,3959,4205,4206,4247,4246
3304,3919,3920,3961,3960,4206,4207,4248,4247
3305,3920,3921,3962,3961,4207,4208,4249,4248
3306,3921,3922,3963,3962,4208,4209,4250,4249
3307,3922,3923,3964,3963,4209,4210,4251,4250
3308,3923,3924,3965,3964,4210,4211,4252,4251
3309,3924,3925,3966,3965,4211,4212,4253,4252
3310,3925,3926,3967,3966,4212,4213,4254,4253
3311,3926,3927,3968,3967,4213,4214,4255,4254
3312,3927,3928,3969,3968,4214,4215,4256,4255
3313,3928,3929,3970,3969,4215,4216,4257,4256
3314,3929,3930,3971,3970,4216,4217,4258,4257
3315,3930,3931,3972,3971,4217,4218,4259,4258
3316,3931,3932,3973,3972,4218,4219,4260,4259
3317,3932,3933,3974,3973,4219,4220,4261,4260
3318,3933,3934,3975,3974,4220,4221,4262,4261
3319,3934,3935,3976,3975,4221,4222,4263,4262
3320,3935,3936,3977,3976,4222,4223,4264,4263
3321,3937,3938,3979,3978,4224,4225,4266,4265
3322,3938,3939,3980,3979,4225,4226,4267,4266
3323,3939,3940,3981,3980,4226,4227,4268,4267
3324,3940,3941,3982,3981,4227,4228,4269,4268
3325,3941,3942,3983,3982,4228,4229,4270,4269
3326,3942,3943,3984,3983,4229,4230,4271,4270
3327,3943,3944,3985,3984,4230,4231,4272,4271
3328,3944,3945,3986,3985,4231,4232,4273,4272
3329,3945,3946,3987,3986,4232,4233,4274,4273
3330,3946,3947,3988,3987,4233,4234,4275,4274
3331,3947,3948,3989,3988,4234,4235,4276,4275
3332,3948,3949,3990,3989,4235,4236,4277,4276
3333,3949,3950,3991,3990,4236,4237,4278,4277
3334,3950,3951,3992,3991,4237,4238,4279,4278
3335,3951,3952,3993,3992,4238,4239,4280,4279
3336,3952,3953,3994,3993,4239,4240,4281,4280
3337,3953,3954,3995,3994,4240,4241,4282,4281
3338,3954,3955,3996,3995,4241,4242,4283,4282
3339,3955,3956,3997,3996,4242,4243,4284,4283
3340,3956,3957,3998,3997,4243,4244,4285,4284
3341,3957,3958,3999,3998,4244,4245,4286,4285
3342,3958,3959,4000,3999,4245,4246,4287,4286
3343,3959,3960,4001,4000,4246,4247,4288,4287
3344,3960,3961,4002,4001,4247,4248,4289,4288
3345,3961,3962,4003,4002,4248,4249,4290,4289
3346,3962,3963,4004,4003,4249,4250,4291,4290
3347,3963,3964,4005,4004,4250,4251,4292,4291
3348,3964,3965,4006,4005,4251,4252,4293,4292
3349,3965,3966,4007,4006,4252,4253,4294,4293
3350,3966,3967,4008,4007,4253,4254,4295,4294
3351,3967,3968,4009,4008,4254,4255,4296,4295
3352,3968,3969,4010,4009,4255,4256,4297,4296
3353,3969,3970,4011,4010,4256,4257,4298,4297
3354,3970,3971,4012,4011,4257,4258,4299,4298
3355,3971,3972,4013,4012,4258,4259,4300,4299
3356,3972,3973,4014,4013,4259,4260,4301,4300
3357,3973,3974,4015,4014,4260,4261,4302,4301
3358,3974,3975,4016,4015,4261,4262,4303,4302
3359,3975,3976,4017,4016,4262,4263,4304,4303
3360,3976,3977,4018,4017,4263,4264,4305,4304
3361,4019,4020,4061,4060,4306,4307,4348,4347
3362,4020,4021,4062,4061,4307,4308,4349,4348
3363,4021,4022,4063,4062,4308,4309,4350,4349
3364,4022,4023,4064,4063,4309,4310,4351,4350
3365,4023,4024,4065,4064,4310,4311,4352,4351
3366,4024,4025,4066,4065,4311,4312,4353,4352
3367,4025,4026,4067,4066,4312,4313,4354,4353
3368,4026,4027,4068,4067,4313,4314,4355,4354
3369,4027,4028,4069,4068,4314,4315,4356,4355
3370,4028,4029,4070,4069,4315,4316,4357,4356
3371,4029,4030,4071,4070,4316,4317,4358,4357
3372,4030,4031,4072,4071,4317,4318,4359,4358
3373,4031,4032,4073,4072,4318,4319,4360,4359
3374,4032,4033,4074,4073,4319,4320,4361,4360
3375,4033,4034,4075,4074,4320,4321,4362,4361
3376,4034,4035,4076,4075,4321,4322,4363,4362
3377,4035,4036,4077,4076,4322,4323,4364,4363
3378,4036,4037,4078,4077,4323,4324,4365,4364
3379,4037,4038,4079,4078,4324,4325,4366,4365
3380,4038,4039,4080,4079,4325,4326,4367,4366
3381,4039,4040,4081,4080,4326,4327,4368,4367
3382,4040,4041,4082,4081,4327,4328,4369,4368
3383,4041,4042,4083,4082,4328,4329,4370,4369
3384,4042,4043,4084,4083,4329,4330,4371,4370
3385,4043,4044,4085,4084,4330,4331,4372,4371
3386,4044,4045,4086,4085,4331,4332,4373,4372
3387,4045,4046,4087,4086,4332,4333,4374,4373
3388,4046,4047,4088,4087,4333,4334,4375,4374
3389,4047,4048,4089,4088,4334,4335,4376,4375
3390,4048,4049,4090,4089,4335,4336,4377,4376
3391,4049,4050,4091,4090,4336,4337,4378,4377
3392,4050,4051,4092,4091,4337,4338,4379,4378
3393,4051,4052,4093,4092,4338,4339,4380,4379
3394,4052,4053,4094,4093,4339,4340,4381,4380
3395,4053,4054,4095,4094,4340,4341,4382,4381
3396,4054,4055,4096,4095,4341,4342,4383,4382
3397,4055,4056,4097,4096,4342,4343,4384,4383
3398,4056,4057,4098,4097,4343,4344,4385,4384
3399,4057,4058,4099,4098,4344,4345,4386,4385
3400,4058,4059,4100,4099,4345,4346,4387,4386
3401,4060,4061,4102,4101,4347,4348,4389,4388
3402,4061,4062,4103,4102,4348,4349,4390,4389
3403,4062,4063,4104,4103,4349,4350,4391,4390
3404,4063,4064,4105,4104,4350,4351,4392,4391
3405,4064,4065,4106,4105,4351,4352,4393,4392
3406,4065,4066,4107,4106,4352,4353,4394,4393
3407,4066,4067,4108,4107,4353,4354,4395,4394
3408,4067,4068,4109,4108,4354,4355,4396,4395
3409,4068,4069,4110,4109,4355,4356,4397,4396
3410,4069,4070,4111,4110,4356,4357,4398,4397
3411,4070,4071,4112,4111,4357,4358,4399,4398
3412,4071,4072,4113,4112,4358,4359,4400,4399
3413,4072,4073,4114,4113,4359,4360,4401,4400
3414,4073,4074,4115,4114,4360,4361,4402,4401
3415,4074,4075,4116,4115,4361,4362,4403,4402
3416,4075,4076,4117,4116,4362,4363,4404,4403
3417,4076,4077,4118,4117,4363,4364,4405,4404
3418,4077,4078,4119,4118,4364,4365,4406,4405
3419,4078,4079,4120,4119,4365,4366,4407,4406
3420,4079,4080,4121,4120,4366,4367,4408,4407
3421,4080,4081,4122,4121,4367,4368,4409,4408
3422,4081,4082,4123,4122,4368,4369,4410,4409
3423,4082,4083,4124,4123,4369,4370,4411,4410
3424,4083,4084,4125,4124,4370,4371,4412,4411
3425,4084,4085,4126,4125,4371,4372,4413,4412
3426,4085,4086,4127,4126,4372,4373,4414,4413
3427,4086,4087,4128,4127,4373,4374,4415,4414
3428,4087,4088,4129,4128,4374,4375,4416,4415
3429,4088,4089,4130,4129,4375,4376,4417,4416
3430,4089,4090,4131,4130,4376,4377,4418,4417
3431,4090,4091,4132,4131,4377,4378,4419,4418
3432,4091,4092,4133,4132,4378,4379,4420,4419
3433,4092,4093,4134,4133,4379,4380,4421,4420
3434,4093,4094,4135,4134,4380,4381,4422,4421
3435,4094,4095,4136,4135,4381,4382,4423,4422
3436,4095,4096,4137,4136,4382,4383,4424,4423
3437,4096,4097,4138,4137,4383,4384,4425,4424
3438,4097,4098,4139,4138,4384,4385,4426,4425
3439,4098,4099,4140,4139,4385,4386,4427,4426
3440,4099,4100,4141,4140,4386,4387,4428,4427
3441,4101,4102,4143,4142,4388,4389,4430,4429
3442,4102,4103,4144,4143,4389,4390,4431,4430
3443,4103,4104,4145,4144,4390,4391,4432,4431
3444,4104,4105,4146,4145,4391,4392,4433,4432
3445,4105,4106,4147,4146,4392,4393,4434,4433
3446,4106,4107,4148,4147,4393,4394,4435,4434
3447,4107,4108,4149,4148,4394,4395,4436,4435
3448,4108,4109,4150,4149,4395,4396,4437,4436
3449,4109,4110,4151,4150,4396,4397,4438,4437
3450,4110,4111,4152,4151,4397,4398,4439,4438
3451,4111,4112,4153,4152,4398,4399,4440,4439
3452,4112,4113,4154,4153,4399,4400,4441,4440
3453,4113,4114,4155,4154,4400,4401,4442,4441
3454,4114,4115,4156,4155,4401,4402,4443,4442
3455,4115,4116,4157,4156,4402,4403,4444,4443
3456,4116,4117,4158,4157,4403,4404,4445,4444
3457,4117,4118,4159,4158,4404,4405,4446,4445
3458,4118,4119,4160,4159,4405,4406,4447,4446
3459,4119,4120,4161,4160,4406,4407,4448,4447
3460,4120,4121,4162,4161,4407,4408,4449,4448
3461,4121,4122,4163,4162,4408,4409,4450,4449
3462,4122,4123,4164,4163,4409,4410,4451,4450
3463,4123,4124,4165,4164,4410,4411,4452,4451
3464,4124,4125,4166,4165,4411,4412,4453,4452
3465,4125,4126,4167,4166,4412,4413,4454,4453
3466,4126,4127,4168,4167,4413,4414,4455,4454
3467,4127,4128,4169,4168,4414,4415,4456,4455
3468,4128,4129,4170,4169,4415,4416,4457,4456
3469,4129,4130,4171,4170,4416,4417,4458,4457
3470,4130,4131,4172,4171,4417,4418,4459,4458
3471,4131,4132,4173,4172,4418,4419,4460,4459
3472,4132,4133,4174,4173,4419,4420,4461,4460
3473,4133,4134,4175,4174,4420,4421,4462,4461
3474,4134,4135,4176,4175,4421,4422,4463,4462
3475,4135,4136,4177,4176,4422,4423,4464,4463
3476,4136,4137,4178,4177,4423,4424,4465,4464
3477,4137,4138,4179,4178,4424,4425,4466,4465
3478,4138,4139,4180,4179,4425,4426,4467,4466
3479,4139,4140,4181,4180,4426,4427,4468,4467
3480,4140,4141,4182,4181,4427,4428,4469,4468
3481,4142,4143,4184,4183,4429,4430,4471,4470
3482,4143,4144,4185,4184,4430,4431,4472,4471
3483,4144,4145,4186,4185,4431,4432,4473,4472
3484,4145,4146,4187,4186,4432,4433,4474,4473
3485,4146,4147,4188,4187,4433,4434,4475,4474
3486,4147,4148,4189,4188,4434,4435,4476,4475
3487,4148,4149,4190,4189,4435,4436,4477,4476
3488,4149,4150,4191,4190,4436,4437,4478,4477
3489,4150,4151,4192,4191,4437,4438,4479,4478
3490,4151,4152,4193,4192,4438,4439,4480,4479
3491,4152,4153,4194,4193,4439,4440,4481,4480
3492,4153,4154,4195,4194,4440,4441,4482,4481
3493,4154,4155,4196,4195,4441,4442,4483,4482
3494,4155,4156,4197,4196,4442,4443,4484,4483
3495,4156,4157,4198,4197,4443,4444,4485,4484
3496,4157,4158,4199,4198,4444,4445,4486,4485
3497,4158,4159,4200,4199,4445,4446,4487,4486
3498,4159,4160,4201,4200,4446,4447,4488,4487
3499,4160,4161,4202,4201,4447,4448,4489,4488
3500,4161,4162,4203,4202,4448,4449,4490,4489
3501,4162,4163,4204,4203,4449,4450,4491,4490
3502,4163,4164,4205,4204,4450,4451,4492,4491
3503,4164,4165,4206,4205,4451,4452,4493,4492
3504,4165,4166,4207,4206,4452,4453,4494,4493
3505,4166,4167,4208,4207,4453,4454,4495,4494
3506,4167,4168,4209,4208,4454,4455,4496,4495
3507,4168,4169,4210,4209,4455,4456,4497,4496
3508,4169,4170,4211,4210,4456,4457,4498,4497
3509,4170,4171,4212,4211,4457,4458,4499,4498
3510,4171,4172,4213,4212,4458,4459,4500,4499
3511,4172,4173,4214,4213,4459,4460,4501,4500
3512,4173,4174,4215,4214,4460,4461,4502,4501
3513,4174,4175,4216,4215,4461,4462,4503,4502
3514,4175,4176,4217,4216,4462,4463,4504,4503
3515,4176,4177,4218,4217,4463,4464,4505,4504
3516,4177,4178,4219,4218,4464,4465,4506,4505
3517,4178,4179,4220,4219,4465,4466,4507,4506
3518,4179,4180,4221,4220,4466,4467,4508,4507
3519,4180,4181,4222,4221,4467,4468,4509,4508
3520,4181,4182,4223,4222,4468,4469,4510,4509
3521,4183,4184,4225,4224,4470,4471,4512,4511
3522,4184,4185,4226,4225,4471,4472,4513,4512
3523,4185,4186,4227,4226,4472,4473,4514,4513
3524,4186,4187,4228,4227,4473,4474,4515,4514
3525,4187,4188,4229,4228,4474,4475,4516,4515
3526,4188,4189,4230,4229,4475,4476,4517,4516
3527,4189,4190,4231,4230,4476,4477,4518,4517
3528,4190,4191,4232,4231,4477,4478,4519,4518
3529,4191,4192,4233,4232,4478,4479,4520,4519
3530,4192,4193,4234,4233,4479,4480,4521,4520
3531,4193,4194,4235,4234,4480,4481,4522,4521
3532,4194,4195,4236,4235,4481,4482,4523,4522
3533,4195,4196,4237,4236,4482,4483,4524,4523
3534,4196,4197,4238,4237,4483,4484,4525,4524
3535,4197,4198,4239,4238,4484,4485,4526,4525
3536,4198,4199,4240,4239,4485,4486,4527,4526
3537,4199,4200,4241,4240,4486,4487,4528,4527
3538,4200,4201,4242,4241,4487,4488,4529,4528
3539,4201,4202,4243,4242,4488,4489,4530,4529
3540,4202,4203,4244,4243,4489,4490,4531,4530
3541,4203,4204,4245,4244,4490,4491,4532,4531
3542,4204,4205,4246,4245,4491,4492,4533,4532
3543,4205,4206,4247,4246,4492,4493,4534,4533
3544,4206,4207,4248,4247,4493,4494,4535,4534
3545,4207,4208,4249,4248,4494,4495,4536,4535
3546,4208,4209,4250,4249,4495,4496,4537,4536
3547,4209,4210,4251,4250,4496,4497,4538,4537
3548,4210,4211,4252,4251,4497,4498,4539,4538
3549,4211,4212,4253,4252,4498,4499,4540,4539
3550,4212,4213,4254,4253,4499,4500,4541,4540
3551,4213,4214,4255,4254,4500,4501,4542,4541
3552,4214,4215,4256,4255,4501,4502,4543,4542
3553,4215,4216,4257,4256,4502,4503,4544,4543
3554,4216,4217,4258,4257,4503,4504,4545,4544
3555,4217,4218,4259,4258,4504,4505,4546,4545
3556,4218,4219,4260,4259,4505,4506,4547,4546
3557,4219,4220,4261,4260,4506,4507,4548,4547
3558,4220,4221,4262,4261,4507,4508,4549,4548
3559,4221,4222,4263,4262,4508,4509,4550,4549
3560,4222,4223,4264,4263,4509,4510,4551,4550
3561,4224,4225,4266,4265,4511,4512,4553,4552
3562,4225,4226,4267,4266,4512,4513,4554,4553
3563,4226,4227,4268,4267,4513,4514,4555,4554
3564,4227,4228,4269,4268,4514,4515,4556,4555
3565,4228,4229,4270,4269,4515,4516,4557,4556
3566,4229,4230,4271,4270,4516,4517,4558,4557
3567,4230,4231,4272,4271,4517,4518,4559,4558
3568,4231,4232,4273,4272,4518,4519,4560,4559
3569,4232,4233,4274,4273,4519,4520,4561,4560
3570,4233,4234,4275,4274,4520,4521,4562,4561
3571,4234,4235,4276,4275,4521,4522,4563,4562
3572,4235,4236,4277,4276,4522,4523,4564,4563
3573,4236,4237,4278,4277,4523,4524,4565,4564
3574,4237,4238,4279,4278,4524,4525,4566,4565
3575,4238,4239,4280,4279,4525,4526,4567,4566
3576,4239,4240,4281,4280,4526,4527,4568,4567
3577,4240,4241,4282,4281,4527,4528,4569,4568
3578,4241,4242,4283,4282,4528,4529,4570,4569
3579,4242,4243,4284,4283,4529,4530,4571,4570
3580,4243,4244,4285,4284,4530,4531,4572,4571
3581,4244,4245,4286,4285,4531,4532,4573,4572
3582,4245,4246,4287,4286,4532,4533,4574,4573
3583,4246,4247,4288,4287,4533,4534,4575,4574
3584,4247,4248,4289,4288,4534,4535,4576,4575
3585,4248,4249,4290,4289,4535,4536,4577,4576
3586,4249,4250,4291,4290,4536,4537,4578,4577
3587,4250,4251,4292,4291,4537,4538,4579,4578
3588,4251,4252,4293,4292,4538,4539,4580,4579
3589,4252,4253,4294,4293,4539,4540,4581,4580
3590,4253,4254,4295,4294,4540,4541,4582,4581
3591,4254,4255,4296,4295,4541,4542,4583,4582
3592,4255,4256,4297,4296,4542,4543,4584,4583
3593,4256,4257,4298,4297,4543,4544,4585,4584
3594,4257,4258,4299,4298,4544,4545,4586,4585
3595,4258,4259,4300,4299,4545,4546,4587,4586
3596,4259,4260,4301,4300,4546,4547,4588,4587
3597,4260,4261,4302,4301,4547,4548,4589,4588
3598,4261,4262,4303,4302,4548,4549,4590,4589
3599,4262,4263,4304,4303,4549,4550,4591,4590
3600,4263,4264,4305,4304,4550,4551,4592,4591
3601,4306,4307,4348,4347,4593,4594,4635,4634
3602,4307,4308,4349,4348,4594,4595,4636,4635
3603,4308,4309,4350,4349,4595,4596,4637,4636
3604,4309,4310,4351,4350,4596,4597,4638,4637
3605,4310,4311,4352,4351,4597,4598,4639,4638
3606,4311,4312,4353,4352,4598,4599,4640,4639
3607,4312,4313,4354,4353,4599,4600,4641,4640
3608,4313,4314,4355,4354,4600,4601,4642,4641
3609,4314,4315,4356,4355,4601,4602,4643,4642
3610,4315,4316,4357,4356,4602,4603,4644,4643
3611,4316,4317,4358,4357,4603,4604,4645,4644
3612,4317,4318,4359,4358,4604,4605,4646,4645
3613,4318,4319,4360,4359,4605,4606,4647,4646
3614,4319,4320,4361,4360,4606,4607,4648,4647
3615,4320,4321,4362,4361,4607,4608,4649,4648
3616,4321,4322,4363,4362,4608,4609,4650,4649
3617,4322,4323,4364,4363,4609,4610,4651,4650
3618,4323,4324,4365,4364,4610,4611,4652,4651
3619,4324,4325,4366,4365,4611,4612,4653,4652
3620,4325,4326,4367,4366,4612,4613,4654,4653
3621,4326,4327,4368,4367,4613,4614,4655,4654
3622,4327,4328,4369,4368,4614,4615,4656,4655
3623,4328,4329,4370,4369,4615,4616,4657,4656
3624,4329,4330,4371,4370,4616,4617,4658,4657
3625,4330,4331,4372,4371,4617,4618,4659,4658
3626,4331,4332,4373,4372,4618,4619,4660,4659
3627,4332,4333,4374,4373,4619,4620,4661,4660
3628,4333,4334,4375,4374,4620,4621,4662,4661
3629,4334,4335,4376,4375,4621,4622,4663,4662
3630,4335,4336,4377,4376,4622,4623,4664,4663
3631,4336,4337,4378,4377,4623,4624,4665,4664
3632,4337,4338,4379,4378,4624,4625,4666,4665
3633,4338,4339,4380,4379,4625,4626,4667,4666
3634,4339,4340,4381,4380,4626,4627,4668,4667
3635,4340,4341,4382,4381,4627,4628,4669,4668
3636,4341,4342,4383,4382,4628,4629,4670,4669
3637,4342,4343,4384,4383,4629,4630,4671,4670
3638,4343,4344,4385,4384,4630,4631,4672,4671
3639,4344,4345,4386,4385,4631,4632,4673,4672
3640,4345,4346,4387,4386,4632,4633,4674,4673
3641,4347,4348,4389,4388,4634,4635,4676,4675
3642,4348,4349,4390,4389,4635,4636,4677,4676
3643,4349,4350,4391,4390,4636,4637,4678,4677
3644,4350,4351,4392,4391,4637,4638,4679,4678
3645,4351,4352,4393,4392,4638,4639,4680,4679
3646,4352,4353,4394,4393,4639,4640,4681,4680
3647,4353,4354,4395,4394,4640,4641,4682,4681
3648,4354,4355,4396,4395,4641,4642,4683,4682
3649,4355,4356,4397,4396,4642,4643,4684,4683
3650,4356,4357,4398,4397,4643,4644,4685,4684
3651,4357,4358,4399,4398,4644,4645,4686,4685
3652,4358,4359,4400,4399,4645,4646,4687,4686
3653,4359,4360,4401,4400,4646,4647,4688,4687
3654,4360,4361,4402,4401,4647,4648,4689,4688
3655,4361,4362,4403,4402,4648,4649,4690,4689
3656,4362,4363,4404,4403,4649,4650,4691,4690
3657,4363,4364,4405,4404,4650,4651,4692,4691
3658,4364,4365,4406,4405,4651,4652,4693,4692
3659,4365,4366,4407,4406,4652,4653,4694,4693
3660,4366,4367,4408,4407,4653,4654,4695,4694
3661,4367,4368,4409,4408,4654,4655,4696,4695
3662,4368,4369,4410,4409,4655,4656,4697,4696
3663,4369,4370,4411,4410,4656,4657,4698,4697
3664,4370,4371,4412,4411,4657,4658,4699,4698
3665,4371,4372,4413,4412,4658,4659,4700,4699
3666,4372,4373,4414,4413,4659,4660,4701,4700
3667,4373,4374,4415,4414,4660,4661,4702,4701
3668,4374,4375,4416,4415,4661,4662,4703,4702
3669,4375,4376,4417,4416,4662,4663,4704,4703
3670,4376,4377,4418,4417,4663,4664,4705,4704
3671,4377,4378,4419,4418,4664,4665,4706,4705
3672,4378,4379,4420,4419,4665,4666,4707,4706
3673,4379,4380,4421,4420,4666,4667,4708,4707
3674,4380,4381,4422,4421,4667,4668,4709,4708
3675,4381,4382,4423,4422,4668,4669,4710,4709
3676,4382,4383,4424,4423,4669,4670,4711,4710
3677,4383,4384,4425,4424,4670,4671,4712,4711
3678,4384,4385,4426,4425,4671,4672,4713,4712
3679,4385,4386,4427,4426,4672,4673,4714,4713
3680,4386,4387,4428,4427,4673,4674,4715,4714
3681,4388,4389,4430,4429,4675,4676,4717,4716
3682,4389,4390,4431,4430,4676,4677,4718,4717
3683,4390,4391,4432,4431,4677,4678,4719,4718
3684,4391,4392,4433,4432,4678,4679,4720,4719
3685,4392,4393,4434,4433,4679,4680,4721,4720
3686,4393,4394,4435,4434,4680,4681,4722,4721
3687,4394,4395,4436,4435,4681,4682,4723,4722
3688,4395,4396,4437,4436,4682,4683,4724,4723
3689,4396,4397,4438,4437,4683,4684,4725,4724
3690,4397,4398,4439,4438,4684,4685,4726,4725
3691,4398,4399,4440,4439,4685,4686,4727,4726
3692,4399,4400,4441,4440,4686,4687,4728,4727
3693,4400,4401,4442,4441,4687,4688,4729,4728
3694,4401,4402,4443,4442,4688,4689,4730,4729
3695,4402,4403,4444,4443,4689,4690,4731,4730
3696,4403,4404,4445,4444,4690,4691,4732,4731
3697,4404,4405,4446,4445,4691,4692,4733,4732
3698,4405,4406,4447,4446,4692,4693,4734,4733
3699,4406,4407,4448,4447,4693,4694,4735,4734
3700,4407,4408,4449,4448,4694,4695,4736,4735
3701,4408,4409,4450,4449,4695,4696,4737,4736
3702,4409,4410,4451,4450,4696,4697,4738,4737
3703,4410,4411,4452,4451,4697,4698,4739,4738
3704,4411,4412,4453,4452,4698,4699,4740,4739
3705,4412,4413,4454,4453,4699,4700,4741,4740
3706,4413,4414,4455,4454,4700,4701,4742,4741
3707,4414,4415,4456,4455,4701,4702,4743,4742
3708,4415,4416,4457,4456,4702,4703,4744,4743
3709,4416,4417,4458,4457,4703,4704,4745,4744
3710,4417,4418,4459,4458,4704,4705,4746,4745
3711,4418,4419,4460,4459,4705,4706,4747,4746
3712,4419,4420,4461,4460,4706,4707,4748,4747
3713,4420,4421,4462,4461,4707,4708,4749,4748
3714,4421,4422,4463,4462,4708,4709,4750,4749
3715,4422,4423,4464,4463,4709,4710,4751,4750
3716,4423,4424,4465,4464,4710,4711,4752,4751
3717,4424,4425,4466,4465,4711,4712,4753,4752
3718,4425,4426,4467,4466,4712,4713,4754,4753
3719,4426,4427,4468,4467,4713,4714,4755,4754
3720,4427,4428,4469,4468,4714,4715,4756,4755
3721,4429,4430,4471,4470,4716,4717,4758,4757
3722,4430,4431,4472,4471,4717,4718,4759,4758
3723,4431,4432,4473,4472,4718,4719,4760,4759
3724,4432,4433,4474,4473,4719,4720,4761,4760
3725,4433,4434,4475,4474,4720,4721,4762,4761
3726,4434,4435,4476,4475,4721,4722,4763,4762
3727,4435,4436,4477,4476,4722,4723,4764,4763
3728,4436,4437,4478,4477,4723,4724,4765,4764
3729,4437,4438,4479,4478,4724,4725,4766,4765
3730,4438,4439,4480,4479,4725,4726,4767,4766
3731,4439,4440,4481,4480,4726,4727,4768,4767
3732,4440,4441,4482,4481,4727,4728,4769,4768
3733,4441,4442,4483,4482,4728,4729,4770,4769
3734,4442,4443,4484,4483,4729,4730,4771,4770
3735,4443,4444,4485,4484,4730,4731,4772,4771
3736,4444,4445,4486,4485,4731,4732,4773,4772
3737,4445,4446,4487,4486,4732,4733,4774,4773
3738,4446,4447,4488,4487,4733,4734,4775,4774
3739,4447,4448,4489,4488,4734,4735,4776,4775
3740,4448,4449,4490,4489,4735,4736,4777,4776
3741,4449,4450,4491,4490,4736,4737,4778,4777
3742,4450,4451,4492,4491,4737,4738,4779,4778
3743,4451,4452,4493,4492,4738,4739,4780,4779
3744,4452,4453,4494,4493,4739,4740,4781,4780
3745,4453,4454,4495,4494,4740,4741,4782,4781
3746,4454,4455,4496,4495,4741,4742,4783,4782
3747,4455,4456,4497,4496,4742,4743,4784,4783
3748,4456,4457,4498,4497,4743,4744,4785,4784
3749,4457,4458,4499,4498,4744,4745,4786,4785
3750,4458,4459,4500,4499,4745,4746,4787,4786
3751,4459,4460,4501,4500,4746,4747,4788,4787
3752,4460,4461,4502,4501,4747,4748,4789,4788
3753,4461,4462,4503,4502,4748,4749,4790,4789
3754,4462,4463,4504,4503,4749,4750,4791,4790
3755,4463,4464,4505,4504,4750,4751,4792,4791
3756,4464,4465,4506,4505,4751,4752,4793,4792
3757,4465,4466,4507,4506,4752,4753,4794,4793
3758,4466,4467,4508,4507,4753,4754,4795,4794
3759,4467,4468,4509,4508,4754,4755,4796,4795
3760,4468,4469,4510,4509,4755,4756,4797,4796
3761,4470,4471,4512,4511,4757,4758,4799,4798
3762,4471,4472,4513,4512,4758,4759,4800,4799
3763,4472,4473,4514,4513,4759,4760,4801,4800
3764,4473,4474,4515,4514,4760,4761,4802,4801
3765,4474,4475,4516,4515,4761,4762,4803,4802
3766,4475,4476,4517,4516,4762,4763,4804,4803
3767,4476,4477,4518,4517,4763,4764,4805,4804
3768,4477,4478,4519,4518,4764,4765,4806,4805
3769,4478,4479,4520,4519,4765,4766,4807,4806
3770,4479,4480,4521,4520,4766,4767,4808,4807
3771,4480,4481,4522,4521,4767,4768,4809,4808
3772,4481,4482,4523,4522,4768,4769,4810,4809
3773,4482,4483,4524,4523,4769,4770,4811,4810
3774,4483,4484,4525,4524,4770,4771,4812,4811
3775,4484,4485,4526,4525,4771,4772,4813,4812
3776,4485,4486,4527,4526,4772,4773,4814,4813
3777,4486,4487,4528,4527,4773,4774,4815,4814
3778,4487,4488,4529,4528,4774,4775,4816,4815
3779,4488,4489,4530,4529,4775,4776,4817,4816
3780,4489,4490,4531,4530,4776,4777,4818,4817
3781,4490,4491,4532,4531,4777,4778,4819,4818
3782,4491,4492,4533,4532,4778,4779,4820,4819
3783,4492,4493,4534,4533,4779,4780,4821,4820
3784,4493,4494,4535,4534,4780,4781,4822,4821
3785,4494,4495,4536,4535,4781,4782,4823,4822
3786,4495,4496,4537,4536,4782,4783,4824,4823
3787,4496,4497,4538,4537,4783,4784,4825,4824
3788,4497,4498,4539,4538,4784,4785,4826,4825
3789,4498,4499,4540,4539,4785,4786,4827,4826
3790,4499,4500,4541,4540,4786,4787,4828,4827
3791,4500,4501,4542,4541,4787,4788,4829,4828
3792,4501,4502,4543,4542,4788,4789,4830,4829
3793,4502,4503,4544,4543,4789,4790,4831,4830
3794,4503,4504,4545,4544,4790,4791,4832,4831
3795,4504,4505,4546,4545,4791,4792,4833,4832
3796,4505,4506,4547,4546,4792,4793,4834,4833
3797,4506,4507,4548,4547,4793,4794,4835,4834
3798,4507,4508,4549,4548,4794,4795,4836,4835
3799,4508,4509,4550,4549,4795,4796,4837,4836
3800,4509,4510,4551,4550,4796,4797,4838,4837
3801,4511,4512,4553,4552,4798,4799,4840,4839
3802,4512,4513,4554,4553,4799,4800,4841,4840
3803,4513,4514,4555,4554,4800,4801,4842,4841
3804,4514,4515,4556,4555,4801,4802,4843,4842
3805,4515,4516,4557,4556,4802,4803,4844,4843
3806,4516,4517,4558,4557,4803,4804,4845,4844
3807,4517,4518,4559,4558,4804,4805,4846,4845
3808,4518,4519,4560,4559,4805,4806,4847,4846
3809,4519,4520,4561,4560,4806,4807,4848,4847
3810,4520,4521,4562,4561,4807,4808,4849,4848
3811,4521,4522,4563,4562,4808,4809,4850,4849
3812,4522,4523,4564,4563,4809,4810,4851,4850
3813,4523,4524,4565,4564,4810,4811,4852,4851
3814,4524,4525,4566,4565,4811,4812,4853,4852
3815,4525,4526,4567,4566,4812,4813,4854,4853
3816,4526,4527,4568,4567,4813,4814,4855,4854
3817,4527,4528,4569,4568,4814,4815,4856,4855
3818,4528,4529,4570,4569,4815,4816,4857,4856
3819,4529,4530,4571,4570,4816,4817,4858,4857
3820,4530,4531,4572,4571,4817,4818,4859,4858
3821,4531,4532,4573,4572,4818,4819,4860,4859
3822,4532,4533,4574,4573,4819,4820,4861,4860
3823,4533,4534,4575,4574,4820,4821,4862,4861
3824,4534,4535,4576,4575,4821,4822,4863,4862
3825,4535,4536,4577,4576,4822,4823,4864,4863
3826,4536,4537,4578,4577,4823,4824,4865,4864
3827,4537,4538,4579,4578,4824,4825,4866,4865
3828,4538,4539,4580,4579,4825,4826,4867,4866
3829,4539,4540,4581,4580,4826,4827,4868,4867
3830,4540,4541,4582,4581,4827,4828,4869,4868
3831,4541,4542,4583,4582,4828,4829,4870,4869
3832,4542,4543,4584,4583,4829,4830,4871,4870
3833,4543,4544,4585,4584,4830,4831,4872,4871
3834,4544,4545,4586,4585,4831,4832,4873,4872
3835,4545,4546,4587,4586,4832,4833,4874,4873
3836,4546,4547,4588,4587,4833,4834,4875,4874
3837,4547,4548,4589,4588,4834,4835,4876,4875
3838,4548,4549,4590,4589,4835,4836,4877,4876
3839,4549,4550,4591,4590,4836,4837,4878,4877
3840,4550,4551,4592,4591,4837,4838,4879,4878
3841,4593,4594,4635,4634,4880,4881,4922,4921
3842,4594,4595,4636,4635,4881,4882,4923,4922
3843,4595,4596,4637,4636,4882,4883,4924,4923
3844,4596,4597,4638,4637,4883,4884,4925,4924
3845,4597,4598,4639,4638,4884,4885,4926,4925
3846,4598,4599,4640,4639,4885,4886,4927,4926
3847,4599,4600,4641,4640,4886,4887,4928,4927
3848,4600,4601,4642,4641,4887,4888,4929,4928
3849,4601,4602,4643,4642,4888,4889,4930,4929
3850,4602,4603,4644,4643,4889,4890,4931,4930
3851,4603,4604,4645,4644,4890,4891,4932,4931
3852,4604,4605,4646,4645,4891,4892,4933,4932
3853,4605,4606,4647,4646,4892,4893,4934,4933
3854,4606,4607,4648,4647,4893,4894,4935,4934
3855,4607,4608,4649,4648,4894,4895,4936,4935
3856,4608,4609,4650,4649,4895,4896,4937,4936
3857,4609,4610,4651,4650,4896,4897,4938,4937
3858,4610,4611,4652,4651,4897,4898,4939,4938
3859,4611,4612,4653,4652,4898,4899,4940,4939
3860,4612,4613,4654,4653,4899,4900,4941,4940
3861,4613,4614,4655,4654,4900,4901,4942,4941
3862,4614,4615,4656,4655,4901,4902,4943,4942
3863,4615,4616,4657,4656,4902,4903,4944,4943
3864,4616,4617,4658,4657,4903,4904,4945,4944
3865,4617,4618,4659,4658,4904,4905,4946,4945
3866,4618,4619,4660,4659,4905,4906,4947,4946
3867,4619,4620,4661,4660,4906,4907,4948,4947
3868,4620,4621,4662,4661,4907,4908,4949,4948
3869,4621,4622,4663,4662,4908,4909,4950,4949
3870,4622,4623,4664,4663,4909,4910,4951,4950
3871,4623,4624,4665,4664,4910,4911,4952,4951
3872,4624,4625,4666,4665,4911,4912,4953,4952
3873,4625,4626,4667,4666,4912,4913,4954,4953
3874,4626,4627,4668,4667,4913,4914,4955,4954
3875,4627,4628,4669,4668,4914,4915,4956,4955
3876,4628,4629,4670,4669,4915,4916,4957,4956
3877,4629,4630,4671,4670,4916,4917,4958,4957
3878,4630,4631,4672,4671,4917,4918,4959,4958
3879,4631,4632,4673,4672,4918,4919,4960,4959
3880,4632,4633,4674,4673,4919,4920,4961,4960
3881,4634,4635,4676,4675,4921,4922,4963,4962
3882,4635,4636,4677,4676,4922,4923,4964,4963
3883,4636,4637,4678,4677,4923,4924,4965,4964
3884,4637,4638,4679,4678,4924,4925,4966,4965
3885,4638,4639,4680,4679,4925,4926,4967,4966
3886,4639,4640,4681,4680,4926,4927,4968,4967
3887,4640,4641,4682,4681,4927,4928,4969,4968
3888,4641,4642,4683,4682,4928,4929,4970,4969
3889,4642,4643,4684,4683,4929,4930,4971,4970
3890,4643,4644,4685,4684,4930,4931,4972,4971
3891,4644,4645,4686,4685,4931,4932,4973,4972
3892,4645,4646,4687,4686,4932,4933,4974,4973
3893,4646,4647,4688,4687,4933,4934,4975,4974
3894,4647,4648,4689,4688,4934,4935,4976,4975
3895,4648,4649,4690,4689,4935,4936,4977,4976
3896,4649,4650,4691,4690,4936,4937,4978,4977
3897,4650,4651,4692,4691,4937,4938,4979,4978
3898,4651,4652,4693,4692,4938,4939,4980,4979
3899,4652,4653,4694,4693,4939,4940,4981,4980
3900,4653,4654,4695,4694,4940,4941,4982,4981
3901,4654,4655,4696,4695,4941,4942,4983,4982
3902,4655,4656,4697,4696,4942,4943,4984,4983
3903,4656,4657,4698,4697,4943,4944,4985,4984
3904,4657,4658,4699,4698,4944,4945,4986,4985
3905,4658,4659,4700,4699,4945,4946,4987,4986
3906,4659,4660,4701,4700,4946,4947,4988,4987
3907,4660,4661,4702,4701,4947,4948,4989,4988
3908,4661,4662,4703,4702,4948,4949,4990,4989
3909,4662,4663,4704,4703,4949,4950,4991,4990
3910,4663,4664,4705,4704,4950,4951,4992,4991
3911,4664,4665,4706,4705,4951,4952,4993,4992
3912,4665,4666,4707,4706,4952,4953,4994,4993
3913,4666,4667,4708,4707,4953,4954,4995,4994
3914,4667,4668,4709,4708,4954,4955,4996,4995
3915,4668,4669,4710,4709,4955,4956,4997,4996
3916,4669,4670,4711,4710,4956,4957,4998,4997
3917,4670,4671,4712,4711,4957,4958,4999,4998
3918,4671,4672,4713,4712,4958,4959,5000,4999
3919,4672,4673,4714,4713,4959,4960,5001,5000
3920,4673,4674,4715,4714,4960,4961,5002,5001
3921,4675,4676,4717,4716,4962,4963,5004,5003
3922,4676,4677,4718,4717,4963,4964,5005,5004
3923,4677,4678,4719,4718,4964,4965,5006,5005
3924,4678,4679,4720,4719,4965,4966,5007,5006
3925,4679,4680,4721,4720,4966,4967,5008,5007
3926,4680,4681,4722,4721,4967,4968,5009,5008
3927,4681,4682,4723,4722,4968,4969,5010,5009
3928,4682,4683,4724,4723,4969,4970,5011,5010
3929,4683,4684,4725,4724,4970,4971,5012,5011
3930,4684,4685,4726,4725,4971,4972,5013,5012
3931,4685,4686,4727,4726,4972,4973,5014,5013
3932,4686,4687,4728,4727,4973,4974,5015,5014
3933,4687,4688,4729,4728,4974,4975,5016,5015
3934,4688,4689,4730,4729,4975,4976,5017,5016
3935,4689,4690,4731,4730,4976,4977,5018,5017
3936,4690,4691,4732,4731,4977,4978,5019,5018
3937,4691,4692,4733,4732,4978,4979,5020,5019
3938,4692,4693,4734,4733,4979,4980,5021,5020
3939,4693,4694,4735,4734,4980,4981,5022,5021
3940,4694,4695,4736,4735,4981,4982,5023,5022
3941,4695,4696,4737,4736,4982,4983,5024,5023
3942,4696,4697,4738,4737,4983,4984,5025,5024
3943,4697,4698,4739,4738,4984,4985,5026,5025
3944,4698,4699,4740,4739,4985,4986,5027,5026
3945,4699,4700,4741,4740,4986,4987,5028,5027
3946,4700,4701,4742,4741,4987,4988,5029,5028
3947,4701,4702,4743,4742,4988,4989,5030,5029
3948,4702,4703,4744,4743,4989,4990,5031,5030
3949,4703,4704,4745,4744,4990,4991,5032,5031
3950,4704,4705,4746,4745,4991,4992,5033,5032
3951,4705,4706,4747,4746,4992,4993,5034,5033
3952,4706,4707,4748,4747,4993,4994,5035,5034
3953,4707,4708,4749,4748,4994,4995,5036,5035
3954,4708,4709,4750,4749,4995,4996,5037,5036
3955,4709,4710,4751,4750,4996,4997,5038,5037
3956,4710,4711,4752,4751,4997,4998,5039,5038
3957,4711,4712,4753,4752,4998,4999,5040,5039
3958,4712,4713,4754,4753,4999,5000,5041,5040
3959,4713,4714,4755,4754,5000,5001,5042,5041
3960,4714,4715,4756,4755,5001,5002,5043,5042
3961,4716,4717,4758,4757,5003,5004,5045,5044
3962,4717,4718,4759,4758,5004,5005,5046,5045
3963,4718,4719,4760,4759,5005,5006,5047,5046
3964,4719,4720,4761,4760,5006,5007,5048,5047
3965,4720,4721,4762,4761,5007,5008,5049,5048
3966,4721,4722,4763,4762,5008,5009,5050,5049
3967,4722,4723,4764,4763,5009,5010,5051,5050
3968,4723,4724,4765,4764,5010,5011,5052,5051
3969,4724,4725,4766,4765,5011,5012,5053,5052
3970,4725,4726,4767,4766,5012,5013,5054,5053
3971,4726,4727,4768,4767,5013,5014,5055,5054
3972,4727,4728,4769,4768,5014,5015,5056,5055
3973,4728,4729,4770,4769,5015,5016,5057,5056
3974,4729,4730,4771,4770,5016,5017,5058,5057
3975,4730,4731,4772,4771,5017,5018,5059,5058
3976,4731,4732,4773,4772,5018,5019,5060,5059
3977,4732,4733,4774,4773,5019,5020,5061,5060
3978,4733,4734,4775,4774,5020,5021,5062,5061
3979,4734,4735,4776,4775,5021,5022,5063,5062
3980,4735,4736,4777,4776,5022,5023,5064,5063
3981,4736,4737,4778,4777,5023,5024,5065,5064
3982,4737,4738,4779,4778,5024,5025,5066,5065
3983,4738,4739,4780,4779,5025,5026,5067,5066
3984,4739,4740,4781,4780,5026,5027,5068,5067
3985,4740,4741,4782,4781,5027,5028,5069,5068
3986,4741,4742,4783,4782,5028,5029,5070,5069
3987,4742,4743,4784,4783,5029,5030,5071,5070
3988,4743,4744,4785,4784,5030,5031,5072,5071
3989,4744,4745,4786,4785,5031,5032,5073,5072
3990,4745,4746,4787,4786,5032,5033,5074,5073
3991,4746,4747,4788,4787,5033,5034,5075,5074
3992,4747,4748,4789,4788,5034,5035,5076,5075
3993,4748,4749,4790,4789,5035,5036,5077,5076
3994,4749,4750,4791,4790,5036,5037,5078,5077
3995,4750,4751,4792,4791,5037,5038,5079,5078
3996,4751,4752,4793,4792,5038,5039,5080,5079
3997,4752,4753,4794,4793,5039,5040,5081,5080
3998,4753,4754,4795,4794,5040,5041,5082,5081
3999,4754,4755,4796,4795,5041,5042,5083,5082
4000,4755,4756,4797,4796,5042,5043,5084,5083
4001,4757,4758,4799,4798,5044,5045,5086,5085
4002,4758,4759,4800,4799,5045,5046,5087,5086
4003,4759,4760,4801,4800,5046,5047,5088,5087
4004,4760,4761,4802,4801,5047,5048,5089,5088
4005,4761,4762,4803,4802,5048,5049,5090,5089
4006,4762,4763,4804,4803,5049,5050,5091,5090
4007,4763,4764,4805,4804,5050,5051,5092,5091
4008,4764,4765,4806,4805,5051,5052,5093,5092
4009,4765,4766,4807,4806,5052,5053,5094,5093
4010,4766,4767,4808,4807,5053,5054,5095,5094
4011,4767,4768,4809,4808,5054,5055,5096,5095
4012,4768,4769,4810,4809,5055,5056,5097,5096
4013,4769,4770,4811,4810,5056,5057,5098,5097
4014,4770,4771,4812,4811,5057,5058,5099,5098
4015,4771,4772,4813,4812,5058,5059,5100,5099
4016,4772,4773,4814,4813,5059,5060,5101,5100
4017,4773,4774,4815,4814,5060,5061,5102,5101
4018,4774,4775,4816,4815,5061,5062,5103,5102
4019,4775,4776,4817,4816,5062,5063,5104,5103
4020,4776,4777,4818,4817,5063,5064,5105,5104
4021,4777,4778,4819,4818,5064,5065,5106,5105
4022,4778,4779,4820,4819,5065,5066,5107,5106
4023,4779,4780,4821,4820,5066,5067,5108,5107
4024,4780,4781,4822,4821,5067,5068,5109,5108
4025,4781,4782,4823,4822,5068,5069,5110,5109
4026,4782,4783,4824,4823,5069,5070,5111,5110
4027,4783,4784,4825,4824,5070,5071,5112,5111
4028,4784,4785,4826,4825,5071,5072,5113,5112
4029,4785,4786,4827,4826,5072,5073,5114,5113
4030,4786,4787,4828,4827,5073,5074,5115,5114
4031,4787,4788,4829,4828,5074,5075,5116,5115
4032,4788,4789,4830,4829,5075,5076,5117,5116
4033,4789,4790,4831,4830,5076,5077,5118,5117
4034,4790,4791,4832,4831,5077,5078,5119,5118
4035,4791,4792,4833,4832,5078,5079,5120,5119
4036,4792,4793,4834,4833,5079,5080,5121,5120
4037,4793,4794,4835,4834,5080,5081,5122,5121
4038,4794,4795,4836,4835,5081,5082,5123,5122
4039,4795,4796,4837,4836,5082,5083,5124,5123
4040,4796,4797,4838,4837,5083,5084,5125,5124
4041,4798,4799,4840,4839,5085,5086,5127,5126
4042,4799,4800,4841,4840,5086,5087,5128,5127
4043,4800,4801,4842,4841,5087,5088,5129,5128
4044,4801,4802,4843,4842,5088,5089,5130,5129
4045,4802,4803,4844,4843,5089,5090,5131,5130
4046,4803,4804,4845,4844,5090,5091,5132,5131
4047,4804,4805,4846,4845,5091,5092,5133,5132
4048,4805,4806,4847,4846,5092,5093,5134,5133
4049,4806,4807,4848,4847,5093,5094,5135,5134
4050,4807,4808,4849,4848,5094,5095,5136,5135
4051,4808,4809,4850,4849,5095,5096,5137,5136
4052,4809,4810,4851,4850,5096,5097,5138,5137
4053,4810,4811,4852,4851,5097,5098,5139,5138
4054,4811,4812,4853,4852,5098,5099,5140,5139
4055,4812,4813,4854,4853,5099,5100,5141,5140
4056,4813,4814,4855,4854,5100,5101,5142,5141
4057,4814,4815,4856,4855,5101,5102,5143,5142
4058,4815,4816,4857,4856,5102,5103,5144,5143
4059,4816,4817,4858,4857,5103,5104,5145,5144
4060,4817,4818,4859,4858,5104,5105,5146,5145
4061,4818,4819,4860,4859,5105,5106,5147,5146
4062,4819,4820,4861,4860,5106,5107,5148,5147
4063,4820,4821,4862,4861,5107,5108,5149,5148
4064,4821,4822,4863,4862,5108,5109,5150,5149
4065,4822,4823,4864,4863,5109,5110,5151,5150
4066,4823,4824,4865,4864,5110,5111,5152,5151
4067,4824,4825,4866,4865,5111,5112,5153,5152
4068,4825,4826,4867,4866,5112,5113,5154,5153
4069,4826,4827,4868,4867,5113,5114,5155,5154
4070,4827,4828,4869,4868,5114,5115,5156,5155
4071,4828,4829,4870,4869,5115,5116,5157,5156
4072,4829,4830,4871,4870,5116,5117,5158,5157
4073,4830,4831,4872,4871,5117,5118,5159,5158
4074,4831,4832,4873,4872,5118,5119,5160,5159
4075,4832,4833,4874,4873,5119,5120,5161,5160
4076,4833,4834,4875,4874,5120,5121,5162,5161
4077,4834,4835,4876,4875,5121,5122,5163,5162
4078,4835,4836,4877,4876,5122,5123,5164,5163
4079,4836,4837,4878,4877,5123,5124,5165,5164
4080,4837,4838,4879,4878,5124,5125,5166,5165
4081,4880,4881,4922,4921,5167,5168,5209,5208
4082,4881,4882,4923,4922,5168,5169,5210,5209
4083,4882,4883,4924,4923,5169,5170,5211,5210
4084,4883,4884,4925,4924,5170,5171,5212,5211
4085,4884,4885,4926,4925,5171,5172,5213,5212
4086,4885,4886,4927,4926,5172,5173,5214,5213
4087,4886,4887,4928,4927,5173,5174,5215,5214
4088,4887,4888,4929,4928,5174,5175,5216,5215
4089,4888,4889,4930,4929,5175,5176,5217,5216
4090,4889,4890,4931,4930,5176,5177,5218,5217
4091,4890,4891,4932,4931,5177,5178,5219,5218
4092,4891,4892,4933,4932,5178,5179,5220,5219
4093,4892,4893,4934,4933,5179,5180,5221,5220
4094,4893,4894,4935,4934,5180,5181,5222,5221
4095,4894,4895,4936,4935,5181,5182,5223,5222
4096,4895,4896,4937,4936,5182,5183,5224,5223
4097,4896,4897,4938,4937,5183,5184,5225,5224
4098,4897,4898,4939,4938,5184,5185,5226,5225
4099,4898,4899,4940,4939,5185,5186,5227,5226
4100,4899,4900,4941,4940,5186,5187,5228,5227
4101,4900,4901,4942,4941,5187,5188,5229,5228
4102,4901,4902,4943,4942,5188,5189,5230,5229
4103,4902,4903,4944,4943,5189,5190,5231,5230
4104,4903,4904,4945,4944,5190,5191,5232,5231
4105,4904,4905,4946,4945,5191,5192,5233,5232
4106,4905,4906,4947,4946,5192,5193,5234,5233
4107,4906,4907,4948,4947,5193,5194,5235,5234
4108,4907,4908,4949,4948,5194,5195,5236,5235
4109,4908,4909,4950,4949,5195,5196,5237,5236
4110,4909,4910,4951,4950,5196,5197,5238,5237
4111,4910,4911,4952,4951,5197,5198,5239,5238
4112,4911,4912,4953,4952,5198,5199,5240,5239
4113,4912,4913,4954,4953,5199,5200,5241,5240
4114,4913,4914,4955,4954,5200,5201,5242,5241
4115,4914,4915,4956,4955,5201,5202,5243,5242
4116,4915,4916,4957,4956,5202,5203,5244,5243
4117,4916,4917,4958,4957,5203,5204,5245,5244
4118,4917,4918,4959,4958,5204,5205,5246,5245
4119,4918,4919,4960,4959,5205,5206,5247,5246
4120,4919,4920,4961,4960,5206,5207,5248,5247
4121,4921,4922,4963,4962,5208,5209,5250,5249
4122,4922,4923,4964,4963,5209,5210,5251,5250
4123,4923,4924,4965,4964,5210,5211,5252,5251
4124,4924,4925,4966,4965,5211,5212,5253,5252
4125,4925,4926,4967,4966,5212,5213,5254,5253
4126,4926,4927,4968,4967,5213,5214,5255,5254
4127,4927,4928,4969,4968,5214,5215,5256,5255
4128,4928,4929,4970,4969,5215,5216,5257,5256
4129,4929,4930,4971,4970,5216,5217,5258,5257
4130,4930,4931,4972,4971,5217,5218,5259,5258
4131,4931,4932,4973,4972,5218,5219,5260,5259
4132,4932,4933,4974,4973,5219,5220,5261,5260
4133,4933,4934,4975,4974,5220,5221,5262,5261
4134,4934,4935,4976,4975,5221,5222,5263,5262
4135,4935,4936,4977,4976,5222,5223,5264,5263
4136,4936,4937,4978,4977,5223,5224,5265,5264
4137,4937,4938,4979,4978,5224,5225,5266,5265
4138,4938,4939,4980,4979,5225,5226,5267,5266
4139,4939,4940,4981,4980,5226,5227,5268,5267
4140,4940,4941,4982,4981,5227,5228,5269,5268
4141,4941,4942,4983,4982,5228,5229,5270,5269
4142,4942,4943,4984,4983,5229,5230,5271,5270
4143,4943,4944,4985,4984,5230,5231,5272,5271
4144,4944,4945,4986,4985,5231,5232,5273,5272
4145,4945,4946,4987,4986,5232,5233,5274,5273
4146,4946,4947,4988,4987,5233,5234,5275,5274
4147,4947,4948,4989,4988,5234,5235,5276,5275
4148,4948,4949,4990,4989,5235,5236,5277,5276
4149,4949,4950,4991,4990,5236,5237,5278,5277
4150,4950,4951,4992,4991,5237,5238,5279,5278
4151,4951,4952,4993,4992,5238,5239,5280,5279
4152,4952,4953,4994,4993,5239,5240,5281,5280
4153,4953,4954,4995,4994,5240,5241,5282,5281
4154,4954,4955,4996,4995,5241,5242,5283,5282
4155,4955,4956,4997,4996,5242,5243,5284,5283
4156,4956,4957,4998,4997,5243,5244,5285,5284
4157,4957,4958,4999,4998,5244,5245,5286,5285
4158,4958,4959,5000,4999,5245,5246,5287,5286
4159,4959,4960,5001,5000,5246,5247,5288,5287
4160,4960,4961,5002,5001,5247,5248,5289,5288
4161,4962,4963,5004,5003,5249,5250,5291,5290
4162,4963,4964,5005,5004,5250,5251,5292,5291
4163,4964,4965,5006,5005,5251,5252,5293,5292
4164,4965,4966,5007,5006,5252,5253,5294,5293
4165,4966,4967,5008,5007,5253,5254,5295,5294
4166,4967,4968,5009,5008,5254,5255,5296,5295
4167,4968,4969,5010,5009,5255,5256,5297,5296
4168,4969,4970,5011,5010,5256,5257,5298,5297
4169,4970,4971,5012,5011,5257,5258,5299,5298
4170,4971,4972,5013,5012,5258,5259,5300,5299
4171,4972,4973,5014,5013,5259,5260,5301,5300
4172,4973,4974,5015,5014,5260,5261,5302,5301
4173,4974,4975,5016,5015,5261,5262,5303,5302
4174,4975,4976,5017,5016,5262,5263,5304,5303
4175,4976,4977,5018,5017,5263,5264,5305,5304
4176,4977,4978,5019,5018,5264,5265,5306,5305
4177,4978,4979,5020,5019,5265,5266,5307,5306
4178,4979,4980,5021,5020,5266,5267,5308,5307
4179,4980,4981,5022,5021,5267,5268,5309,5308
4180,4981,4982,5023,5022,5268,5269,5310,5309
4181,4982,4983,5024,5023,5269,5270,5311,5310
4182,4983,4984,5025,5024,5270,5271,5312,5311
4183,4984,4985,5026,5025,5271,5272,5313,5312
4184,4985,4986,5027,5026,5272,5273,5314,5313
4185,4986,4987,5028,5027,5273,5274,5315,5314
4186,4987,4988,5029,5028,5274,5275,5316,5315
4187,4988,4989,5030,5029,5275,5276,5317,5316
4188,4989,4990,5031,5030,5276,5277,5318,5317
4189,4990,4991,5032,5031,5277,5278,5319,5318
4190,4991,4992,5033,5032,5278,5279,5320,5319
4191,4992,4993,5034,5033,5279,5280,5321,5320
4192,4993,4994,5035,5034,5280,5281,5322,5321
4193,4994,4995,5036,5035,5281,5282,5323,5322
4194,4995,4996,5037,5036,5282,5283,5324,5323
4195,4996,4997,5038,5037,5283,5284,5325,5324
4196,4997,4998,5039,5038,5284,5285,5326,5325
4197,4998,4999,5040,5039,5285,5286,5327,5326
4198,4999,5000,5041,5040,5286,5287,5328,5327
4199,5000,5001,5042,5041,5287,5288,5329,5328
4200,5001,5002,5043,5042,5288,5289,5330,5329
4201,5003,5004,5045,5044,5290,5291,5332,5331
4202,5004,5005,5046,5045,5291,5292,5333,5332
4203,5005,5006,5047,5046,5292,5293,5334,5333
4204,5006,5007,5048,5047,5293,5294,5335,5334
4205,5007,5008,5049,5048,5294,5295,5336,5335
4206,5008,5009,5050,5049,5295,5296,5337,5336
4207,5009,5010,5051,5050,5296,5297,5338,5337
4208,5010,5011,5052,5051,5297,5298,5339,5338
4209,5011,5012,5053,5052,5298,5299,5340,5339
4210,5012,5013,5054,5053,5299,5300,5341,5340
4211,5013,5014,5055,5054,5300,5301,5342,5341
4212,5014,5015,5056,5055,5301,5302,5343,5342
4213,5015,5016,5057,5056,5302,5303,5344,5343
4214,5016,5017,5058,5057,5303,5304,5345,5344
4215,5017,5018,5059,5058,5304,5305,5346,5345
4216,5018,5019,5060,5059,5305,5306,5347,5346
4217,5019,5020,5061,5060,5306,5307,5348,5347
4218,5020,5021,5062,5061,5307,5308,5349,5348
4219,5021,5022,5063,5062,5308,5309,5350,5349
4220,5022,5023,5064,5063,5309,5310,5351,5350
4221,5023,5024,5065,5064,5310,5311,5352,5351
4222,5024,5025,5066,5065,5311,5312,5353,5352
4223,5025,5026,5067,5066,5312,5313,5354,5353
4224,5026,5027,5068,5067,5313,5314,5355,5354
4225,5027,5028,5069,5068,5314,5315,5356,5355
4226,5028,5029,5070,5069,5315,5316,5357,5356
4227,5029,5030,5071,5070,5316,5317,5358,5357
4228,5030,5031,5072,5071,5317,5318,5359,5358
4229,5031,5032,5073,5072,5318,5319,5360,5359
4230,5032,5033,5074,5073,5319,5320,5361,5360
4231,5033,5034,5075,5074,5320,5321,5362,5361
4232,5034,5035,5076,5075,5321,5322,5363,5362
4233,5035,5036,5077,5076,5322,5323,5364,5363
4234,5036,5037,5078,5077,5323,5324,5365,5364
4235,5037,5038,5079,5078,5324,5325,5366,5365
4236,5038,5039,5080,5079,5325,5326,5367,5366
4237,5039,5040,5081,5080,5326,5327,5368,5367
4238,5040,5041,5082,5081,5327,5328,5369,5368
4239,5041,5042,5083,5082,5328,5329,5370,5369
4240,5042,5043,5084,5083,5329,5330,5371,5370
4241,5044,5045,5086,5085,5331,5332,5373,5372
4242,5045,5046,5087,5086,5332,5333,5374,5373
4243,5046,5047,5088,5087,5333,5334,5375,5374
4244,5047,5048,5089,5088,5334,5335,5376,5375
4245,5048,5049,5090,5089,5335,5336,5377,5376
4246,5049,5050,5091,5090,5336,5337,5378,5377
4247,5050,5051,5092,5091,5337,5338,5379,5378
4248,5051,5052,5093,5092,5338,5339,5380,5379
4249,5052,5053,5094,5093,5339,5340,5381,5380
4250,5053,5054,5095,5094,5340,5341,5382,5381
4251,5054,5055,5096,5095,5341,5342,5383,5382
4252,5055,5056,5097,5096,5342,5343,5384,5383
4253,5056,5057,5098,5097,5343,5344,5385,5384
4254,5057,5058,5099,5098,5344,5345,5386,5385
4255,5058,5059,5100,5099,5345,5346,5387,5386
4256,5059,5060,5101,5100,5346,5347,5388,5387
4257,5060,5061,5102,5101,5347,5348,5389,5388
4258,5061,5062,5103,5102,5348,5349,5390,5389
4259,5062,5063,5104,5103,5349,5350,5391,5390
4260,5063,5064,5105,5104,5350,5351,5392,5391
4261,5064,5065,5106,5105,5351,5352,5393,5392
4262,5065,5066,5107,5106,5352,5353,5394,5393
4263,5066,5067,5108,5107,5353,5354,5395,5394
4264,5067,5068,5109,5108,5354,5355,5396,5395
4265,5068,5069,5110,5109,5355,5356,5397,5396
4266,5069,5070,5111,5110,5356,5357,5398,5397
4267,5070,5071,5112,5111,5357,5358,5399,5398
4268,5071,5072,5113,5112,5358,5359,5400,5399
4269,5072,5073,5114,5113,5359,5360,5401,5400
4270,5073,5074,5115,5114,5360,5361,5402,5401
4271,5074,5075,5116,5115,5361,5362,5403,5402
4272,5075,5076,5117,5116,5362,5363,5404,5403
4273,5076,5077,5118,5117,5363,5364,5405,5404
4274,5077,5078,5119,5118,5364,5365,5406,5405
4275,5078,5079,5120,5119,5365,5366,5407,5406
4276,5079,5080,5121,5120,5366,5367,5408,5407
4277,5080,5081,5122,5121,5367,5368,5409,5408
4278,5081,5082,5123,5122,5368,5369,5410,5409
4279,5082,5083,5124,5123,5369,5370,5411,5410
4280,5083,5084,5125,5124,5370,5371,5412,5411
4281,5085,5086,5127,5126,5372,5373,5414,5413
4282,5086,5087,5128,5127,5373,5374,5415,5414
4283,5087,5088,5129,5128,5374,5375,5416,5415
4284,5088,5089,5130,5129,5375,5376,5417,5416
4285,5089,5090,5131,5130,5376,5377,5418,5417
4286,5090,5091,5132,5131,5377,5378,5419,5418
4287,5091,5092,5133,5132,5378,5379,5420,5419
4288,5092,5093,5134,5133,5379,5380,5421,5420
4289,5093,5094,5135,5134,5380,5381,5422,5421
4290,5094,5095,5136,5135,5381,5382,5423,5422
4291,5095,5096,5137,5136,5382,5383,5424,5423
4292,5096,5097,5138,5137,5383,5384,5425,5424
4293,5097,5098,5139,5138,5384,5385,5426,5425
4294,5098,5099,5140,5139,5385,5386,5427,5426
4295,5099,5100,5141,5140,5386,5387,5428,5427
4296,5100,5101,5142,5141,5387,5388,5429,5428
4297,5101,5102,5143,5142,5388,5389,5430,5429
4298,5102,5103,5144,5143,5389,5390,5431,5430
4299,5103,5104,5145,5144,5390,5391,5432,5431
4300,5104,5105,5146,5145,5391,5392,5433,5432
4301,5105,5106,5147,5146,5392,5393,5434,5433
4302,5106,5107,5148,5147,5393,5394,5435,5434
4303,5107,5108,5149,5148,5394,5395,5436,5435
4304,5108,5109,5150,5149,5395,5396,5437,5436
4305,5109,5110,5151,5150,5396,5397,5438,5437
4306,5110,5111,5152,5151,5397,5398,5439,5438
4307,5111,5112,5153,5152,5398,5399,5440,5439
4308,5112,5113,5154,5153,5399,5400,5441,5440
4309,5113,5114,5155,5154,5400,5401,5442,5441
4310,5114,5115,5156,5155,5401,5402,5443,5442
4311,5115,5116,5157,5156,5402,5403,5444,5443
4312,5116,5117,5158,5157,5403,5404,5445,5444
4313,5117,5118,5159,5158,5404,5405,5446,5445
4314,5118,5119,5160,5159,5405,5406,5447,5446
4315,5119,5120,5161,5160,5406,5407,5448,5447
4316,5120,5121,5162,5161,5407,5408,5449,5448
4317,5121,5122,5163,5162,5408,5409,5450,5449
4318,5122,5123,5164,5163,5409,5410,5451,5450
4319,5123,5124,5165,5164,5410,5411,5452,5451
4320,5124,5125,5166,5165,5411,5412,5453,5452
4321,5167,5168,5209,5208,5454,5455,5496,5495
4322,5168,5169,5210,5209,5455,5456,5497,5496
4323,5169,5170,5211,5210,5456,5457,5498,5497
4324,5170,5171,5212,5211,5457,5458,5499,5498
4325,5171,5172,5213,5212,5458,5459,5500,5499
4326,5172,5173,5214,5213,5459,5460,5501,5500
4327,5173,5174,5215,5214,5460,5461,5502,5501
4328,5174,5175,5216,5215,5461,5462,5503,5502
4329,5175,5176,5217,5216,5462,5463,5504,5503
4330,5176,5177,5218,5217,5463,5464,5505,5504
4331,5177,5178,5219,5218,5464,5465,5506,5505
4332,5178,5179,5220,5219,5465,5466,5507,5506
4333,5179,5180,5221,5220,5466,5467,5508,5507
4334,5180,5181,5222,5221,5467,5468,5509,5508
4335,5181,5182,5223,5222,5468,5469,5510,5509
4336,5182,5183,5224,5223,5469,5470,5511,5510
4337,5183,5184,5225,5224,5470,5471,5512,5511
4338,5184,5185,5226,5225,5471,5472,5513,5512
4339,5185,5186,5227,5226,5472,5473,5514,5513
4340,5186,5187,5228,5227,5473,5474,5515,5514
4341,5187,5188,5229,5228,5474,5475,5516,5515
4342,5188,5189,5230,5229,5475,5476,5517,5516
4343,5189,5190,5231,5230,5476,5477,5518,5517
4344,5190,5191,5232,5231,5477,5478,5519,5518
4345,5191,5192,5233,5232,5478,5479,5520,5519
4346,5192,5193,5234,5233,5479,5480,5521,5520
4347,5193,5194,5235,5234,5480,5481,5522,5521
4348,5194,5195,5236,5235,5481,5482,5523,5522
4349,5195,5196,5237,5236,5482,5483,5524,5523
4350,5196,5197,5238,5237,5483,5484,5525,5524
4351,5197,5198,5239,5238,5484,5485,5526,5525
4352,5198,5199,5240,5239,5485,5486,5527,5526
4353,5199,5200,5241,5240,5486,5487,5528,5527
4354,5200,5201,5242,5241,5487,5488,5529,5528
4355,5201,5202,5243,5242,5488,5489,5530,5529
4356,5202,5203,5244,5243,5489,5490,5531,5530
4357,5203,5204,5245,5244,5490,5491,5532,5531
4358,5204,5205,5246,5245,5491,5492,5533,5532
4359,5205,5206,5247,5246,5492,5493,5534,5533
4360,5206,5207,5248,5247,5493,5494,5535,5534
4361,5208,5209,5250,5249,5495,5496,5537,5536
4362,5209,5210,5251,5250,5496,5497,5538,5537
4363,5210,5211,5252,5251,5497,5498,5539,5538
4364,5211,5212,5253,5252,5498,5499,5540,5539
4365,5212,5213,5254,5253,5499,5500,5541,5540
4366,5213,5214,5255,5254,5500,5501,5542,5541
4367,5214,5215,5256,5255,5501,5502,5543,5542
4368,5215,5216,5257,5256,5502,5503,5544,5543
4369,5216,5217,5258,5257,5503,5504,5545,5544
4370,5217,5218,5259,5258,5504,5505,5546,5545
4371,5218,5219,5260,5259,5505,5506,5547,5546
4372,5219,5220,5261,5260,5506,5507,5548,5547
4373,5220,5221,5262,5261,5507,5508,5549,5548
4374,5221,5222,5263,5262,5508,5509,5550,5549
4375,5222,5223,5264,5263,5509,5510,5551,5550
4376,5223,5224,5265,5264,5510,5511,5552,5551
4377,5224,5225,5266,5265,5511,5512,5553,5552
4378,5225,5226,5267,5266,5512,5513,5554,5553
4379,5226,5227,5268,5267,5513,5514,5555,5554
4380,5227,5228,5269,5268,5514,5515,5556,5555
4381,5228,5229,5270,5269,5515,5516,5557,5556
4382,5229,5230,5271,5270,5516,5517,5558,5557
4383,5230,5231,5272,5271,5517,5518,5559,5558
4384,5231,5232,5273,5272,5518,5519,5560,5559
4385,5232,5233,5274,5273,5519,5520,5561,5560
4386,5233,5234,5275,5274,5520,5521,5562,5561
4387,5234,5235,5276,5275,5521,5522,5563,5562
4388,5235,5236,5277,5276,5522,5523,5564,5563
4389,5236,5237,5278,5277,5523,5524,5565,5564
4390,5237,5238,5279,5278,5524,5525,5566,5565
4391,5238,5239,5280,5279,5525,5526,5567,5566
4392,5239,5240,5281,5280,5526,5527,5568,5567
4393,5240,5241,5282,5281,5527,5528,5569,5568
4394,5241,5242,5283,5282,5528,5529,5570,5569
4395,5242,5243,5284,5283,5529,5530,5571,5570
4396,5243,5244,5285,5284,5530,5531,5572,5571
4397,5244,5245,5286,5285,5531,5532,5573,5572
4398,5245,5246,5287,5286,5532,5533,5574,5573
4399,5246,5247,5288,5287,5533,5534,5575,5574
4400,5247,5248,5289,5288,5534,5535,5576,5575
4401,5249,5250,5291,5290,5536,5537,5578,5577
4402,5250,5251,5292,5291,5537,5538,5579,5578
4403,5251,5252,5293,5292,5538,5539,5580,5579
4404,5252,5253,5294,5293,5539,5540,5581,5580
4405,5253,5254,5295,5294,5540,5541,5582,5581
4406,5254,5255,5296,5295,5541,5542,5583,5582
4407,5255,5256,5297,5296,5542,5543,5584,5583
4408,5256,5257,5298,5297,5543,5544,5585,5584
4409,5257,5258,5299,5298,5544,5545,5586,5585
4410,5258,5259,5300,5299,5545,5546,5587,5586
4411,5259,5260,5301,5300,5546,5547,5588,5587
4412,5260,5261,5302,5301,5547,5548,5589,5588
4413,5261,5262,5303,5302,5548,5549,5590,5589
4414,5262,5263,5304,5303,5549,5550,5591,5590
4415,5263,5264,5305,5304,5550,5551,5592,5591
4416,5264,5265,5306,5305,5551,5552,5593,5592
4417,5265,5266,5307,5306,5552,5553,5594,5593
4418,5266,5267,5308,5307,5553,5554,5595,5594
4419,5267,5268,5309,5308,5554,5555,5596,5595
4420,5268,5269,5310,5309,5555,5556,5597,5596
4421,5269,5270,5311,5310,5556,5557,5598,5597
4422,5270,5271,5312,5311,5557,5558,5599,5598
4423,5271,5272,5313,5312,5558,5559,5600,5599
4424,5272,5273,5314,5313,5559,5560,5601,5600
4425,5273,5274,5315,5314,5560,5561,5602,5601
4426,5274,5275,5316,5315,5561,5562,5603,5602
4427,5275,5276,5317,5316,5562,5563,5604,5603
4428,5276,5277,5318,5317,5563,5564,5605,5604
4429,5277,5278,5319,5318,5564,5565,5606,5605
4430,5278,5279,5320,5319,5565,5566,5607,5606
4431,5279,5280,5321,5320,5566,5567,5608,5607
4432,5280,5281,5322,5321,5567,5568,5609,5608
4433,5281,5282,5323,5322,5568,5569,5610,5609
4434,5282,5283,5324,5323,5569,5570,5611,5610
4435,5283,5284,5325,5324,5570,5571,5612,5611
4436,5284,5285,5326,5325,5571,5572,5613,5612
4437,5285,5286,5327,5326,5572,5573,5614,5613
4438,5286,5287,5328,5327,5573,5574,5615,5614
4439,5287,5288,5329,5328,5574,5575,5616,5615
4440,5288,5289,5330,5329,5575,5576,5617,5616
4441,5290,5291,5332,5331,5577,5578,5619,5618
4442,5291,5292,5333,5332,5578,5579,5620,5619
4443,5292,5293,5334,5333,5579,5580,5621,5620
4444,5293,5294,5335,5334,5580,5581,5622,5621
4445,5294,5295,5336,5335,5581,5582,5623,5622
4446,5295,5296,5337,5336,5582,5583,5624,5623
4447,5296,5297,5338,5337,5583,5584,5625,5624
4448,5297,5298,5339,5338,5584,5585,5626,5625
4449,5298,5299,5340,5339,5585,5586,5627,5626
4450,5299,5300,5341,5340,5586,5587,5628,5627
4451,5300,5301,5342,5341,5587,5588,5629,5628
4452,5301,5302,5343,5342,5588,5589,5630,5629
4453,5302,5303,5344,5343,5589,5590,5631,5630
4454,5303,5304,5345,5344,5590,5591,5632,5631
4455,5304,5305,5346,5345,5591,5592,5633,5632
4456,5305,5306,5347,5346,5592,5593,5634,5633
4457,5306,5307,5348,5347,5593,5594,5635,5634
4458,5307,5308,5349,5348,5594,5595,5636,5635
4459,5308,5309,5350,5349,5595,5596,5637,5636
4460,5309,5310,5351,5350,5596,5597,5638,5637
4461,5310,5311,5352,5351,5597,5598,5639,5638
4462,5311,5312,5353,5352,5598,5599,5640,5639
4463,5312,5313,5354,5353,5599,5600,5641,5640
4464,5313,5314,5355,5354,5600,5601,5642,5641
4465,5314,5315,5356,5355,5601,5602,5643,5642
4466,5315,5316,5357,5356,5602,5603,5644,5643
4467,5316,5317,5358,5357,5603,5604,5645,5644
4468,5317,5318,5359,5358,5604,5605,5646,5645
4469,5318,5319,5360,5359,5605,5606,5647,5646
4470,5319,5320,5361,5360,5606,5607,5648,5647
4471,5320,5321,5362,5361,5607,5608,5649,5648
4472,5321,5322,5363,5362,5608,5609,5650,5649
4473,5322,5323,5364,5363,5609,5610,5651,5650
4474,5323,5324,5365,5364,5610,5611,5652,5651
4475,5324,5325,5366,5365,5611,5612,5653,5652
4476,5325,5326,5367,5366,5612,5613,5654,5653
4477,5326,5327,5368,5367,5613,5614,5655,5654
4478,5327,5328,5369,5368,5614,5615,5656,5655
4479,5328,5329,5370,5369,5615,5616,5657,5656
4480,5329,5330,5371,5370,5616,5617,5658,5657
4481,5331,5332,5373,5372,5618,5619,5660,5659
4482,5332,5333,5374,5373,5619,5620,5661,5660
4483,5333,5334,5375,5374,5620,5621,5662,5661
4484,5334,5335,5376,5375,5621,5622,5663,5662
4485,5335,5336,5377,5376,5622,5623,5664,5663
4486,5336,5337,5378,5377,5623,5624,5665,5664
4487,5337,5338,5379,5378,5624,5625,5666,5665
4488,5338,5339,5380,5379,5625,5626,5667,5666
4489,5339,5340,5381,5380,5626,5627,5668,5667
4490,5340,5341,5382,5381,5627,5628,5669,5668
4491,5341,5342,5383,5382,5628,5629,5670,5669
4492,5342,5343,5384,5383,5629,5630,5671,5670
4493,5343,5344,5385,5384,5630,5631,5672,5671
4494,5344,5345,5386,5385,5631,5632,5673,5672
4495,5345,5346,5387,5386,5632,5633,5674,5673
4496,5346,5347,5388,5387,5633,5634,5675,5674
4497,5347,5348,5389,5388,5634,5635,5676,5675
4498,5348,5349,5390,5389,5635,5636,5677,5676
4499,5349,5350,5391,5390,5636,5637,5678,5677
4500,5350,5351,5392,5391,5637,5638,5679,5678
4501,5351,5352,5393,5392,5638,5639,5680,5679
4502,5352,5353,5394,5393,5639,5640,5681,5680
4503,5353,5354,5395,5394,5640,5641,5682,5681
4504,5354,5355,5396,5395,5641,5642,5683,5682
4505,5355,5356,5397,5396,5642,5643,5684,5683
4506,5356,5357,5398,5397,5643,5644,5685,5684
4507,5357,5358,5399,5398,5644,5645,5686,5685
4508,5358,5359,5400,5399,5645,5646,5687,5686
4509,5359,5360,5401,5400,5646,5647,5688,5687
4510,5360,5361,5402,5401,5647,5648,5689,5688
4511,5361,5362,5403,5402,5648,5649,5690,5689
4512,5362,5363,5404,5403,5649,5650,5691,5690
4513,5363,5364,5405,5404,5650,5651,5692,5691
4514,5364,5365,5406,5405,5651,5652,5693,5692
4515,5365,5366,5407,5406,5652,5653,5694,5693
4516,5366,5367,5408,5407,5653,5654,5695,5694
4517,5367,5368,5409,5408,5654,5655,5696,5695
4518,5368,5369,5410,5409,5655,5656,5697,5696
4519,5369,5370,5411,5410,5656,5657,5698,5697
4520,5370,5371,5412,5411,5657,5658,5699,5698
4521,5372,5373,5414,5413,5659,5660,5701,5700
4522,5373,5374,5415,5414,5660,5661,5702,5701
4523,5374,5375,5416,5415,5661,5662,5703,5702
4524,5375,5376,5417,5416,5662,5663,5704,5703
4525,5376,5377,5418,5417,5663,5664,5705,5704
4526,5377,5378,5419,5418,5664,5665,5706,5705
4527,5378,5379,5420,5419,5665,5666,5707,5706
4528,5379,5380,5421,5420,5666,5667,5708,5707
4529,5380,5381,5422,5421,5667,5668,5709,5708
4530,5381,5382,5423,5422,5668,5669,5710,5709
4531,5382,5383,5424,5423,5669,5670,5711,5710
4532,5383,5384,5425,5424,5670,5671,5712,5711
4533,5384,5385,5426,5425,5671,5672,5713,5712
4534,5385,5386,5427,5426,5672,5673,5714,5713
4535,5386,5387,5428,5427,5673,5674,5715,5714
4536,5387,5388,5429,5428,5674,5675,5716,5715
4537,5388,5389,5430,5429,5675,5676,5717,5716
4538,5389,5390,5431,5430,5676,5677,5718,5717
4539,5390,5391,5432,5431,5677,5678,5719,5718
4540,5391,5392,5433,5432,5678,5679,5720,5719
4541,5392,5393,5434,5433,5679,5680,5721,5720
4542,5393,5394,5435,5434,5680,5681,5722,5721
4543,5394,5395,5436,5435,5681,5682,5723,5722
4544,5395,5396,5437,5436,5682,5683,5724,5723
4545,5396,5397,5438,5437,5683,5684,5725,5724
4546,5397,5398,5439,5438,5684,5685,5726,5725
4547,5398,5399,5440,5439,5685,5686,5727,5726
4548,5399,5400,5441,5440,5686,5687,5728,5727
4549,5400,5401,5442,5441,5687,5688,5729,5728
4550,5401,5402,5443,5442,5688,5689,5730,5729
4551,5402,5403,5444,5443,5689,5690,5731,5730
4552,5403,5404,5445,5444,5690,5691,5732,5731
4553,5404,5405,5446,5445,5691,5692,5733,5732
4554,5405,5406,5447,5446,5692,5693,5734,5733
4555,5406,5407,5448,5447,5693,5694,5735,5734
4556,5407,5408,5449,5448,5694,5695,5736,5735
4557,5408,5409,5450,5449,5695,5696,5737,5736
4558,5409,5410,5451,5450,5696,5697,5738,5737
4559,5410,5411,5452,5451,5697,5698,5739,5738
4560,5411,5412,5453,5452,5698,5699,5740,5739
4561,5454,5455,5496,5495,5741,5742,5783,5782
4562,5455,5456,5497,5496,5742,5743,5784,5783
4563,5456,5457,5498,5497,5743,5744,5785,5784
4564,5457,5458,5499,5498,5744,5745,5786,5785
4565,5458,5459,5500,5499,5745,5746,5787,5786
4566,5459,5460,5501,5500,5746,5747,5788,5787
4567,5460,5461,5502,5501,5747,5748,5789,5788
4568,5461,5462,5503,5502,5748,5749,5790,5789
4569,5462,5463,5504,5503,5749,5750,5791,5790
4570,5463,5464,5505,5504,5750,5751,5792,5791
4571,5464,5465,5506,5505,5751,5752,5793,5792
4572,5465,5466,5507,5506,5752,5753,5794,5793
4573,5466,5467,5508,5507,5753,5754,5795,5794
4574,5467,5468,5509,5508,5754,5755,5796,5795
4575,5468,5469,5510,5509,5755,5756,5797,5796
4576,5469,5470,5511,5510,5756,5757,5798,5797
4577,5470,5471,5512,5511,5757,5758,5799,5798
4578,5471,5472,5513,5512,5758,5759,5800,5799
4579,5472,5473,5514,5513,5759,5760,5801,5800
4580,5473,5474,5515,5514,5760,5761,5802,5801
4581,5474,5475,5516,5515,5761,5762,5803,5802
4582,5475,5476,5517,5516,5762,5763,5804,5803
4583,5476,5477,5518,5517,5763,5764,5805,5804
4584,5477,5478,5519,5518,5764,5765,5806,5805
4585,5478,5479,5520,5519,5765,5766,5807,5806
4586,5479,5480,5521,5520,5766,5767,5808,5807
4587,5480,5481,5522,5521,5767,5768,5809,5808
4588,5481,5482,5523,5522,5768,5769,5810,5809
4589,5482,5483,5524,5523,5769,5770,5811,5810
4590,5483,5484,5525,5524,5770,5771,5812,5811
4591,5484,5485,5526,5525,5771,5772,5813,5812
4592,5485,5486,5527,5526,5772,5773,5814,5813
4593,5486,5487,5528,5527,5773,5774,5815,5814
4594,5487,5488,5529,5528,5774,5775,5816,5815
4595,5488,5489,5530,5529,5775,5776,5817,5816
4596,5489,5490,5531,5530,5776,5777,5818,5817
4597,5490,5491,5532,5531,5777,5778,5819,5818
4598,5491,5492,5533,5532,5778,5779,5820,5819
4599,5492,5493,5534,5533,5779,5780,5821,5820
4600,5493,5494,5535,5534,5780,5781,5822,5821
4601,5495,5496,5537,5536,5782,5783,5824,5823
4602,5496,5497,5538,5537,5783,5784,5825,5824
4603,5497,5498,5539,5538,5784,5785,5826,5825
4604,5498,5499,5540,5539,5785,5786,5827,5826
4605,5499,5500,5541,5540,5786,5787,5828,5827
4606,5500,5501,5542,5541,5787,5788,5829,5828
4607,5501,5502,5543,5542,5788,5789,5830,5829
4608,5502,5503,5544,5543,5789,5790,5831,5830
4609,5503,5504,5545,5544,5790,5791,5832,5831
4610,5504,5505,5546,5545,5791,5792,5833,5832
4611,5505,5506,5547,5546,5792,5793,5834,5833
4612,5506,5507,5548,5547,5793,5794,5835,5834
4613,5507,5508,5549,5548,5794,5795,5836,5835
4614,5508,5509,5550,5549,5795,5796,5837,5836
4615,5509,5510,5551,5550,5796,5797,5838,5837
4616,5510,5511,5552,5551,5797,5798,5839,5838
4617,5511,5512,5553,5552,5798,5799,5840,5839
4618,5512,5513,5554,5553,5799,5800,5841,5840
4619,5513,5514,5555,5554,5800,5801,5842,5841
4620,5514,5515,5556,5555,5801,5802,5843,5842
4621,5515,5516,5557,5556,5802,5803,5844,5843
4622,5516,5517,5558,5557,5803,5804,5845,5844
4623,5517,5518,5559,5558,5804,5805,5846,5845
4624,5518,5519,5560,5559,5805,5806,5847,5846
4625,5519,5520,5561,5560,5806,5807,5848,5847
4626,5520,5521,5562,5561,5807,5808,5849,5848
4627,5521,5522,5563,5562,5808,5809,5850,5849
4628,5522,5523,5564,5563,5809,5810,5851,5850
4629,5523,5524,5565,5564,5810,5811,5852,5851
4630,5524,5525,5566,5565,5811,5812,5853,5852
4631,5525,5526,5567,5566,5812,5813,5854,5853
4632,5526,5527,5568,5567,5813,5814,5855,5854
4633,5527,5528,5569,5568,5814,5815,5856,5855
4634,5528,5529,5570,5569,5815,5816,5857,5856
4635,5529,5530,5571,5570,5816,5817,5858,5857
4636,5530,5531,5572,5571,5817,5818,5859,5858
4637,5531,5532,5573,5572,5818,5819,5860,5859
4638,5532,5533,5574,5573,5819,5820,5861,5860
4639,5533,5534,5575,5574,5820,5821,5862,5861
4640,5534,5535,5576,5575,5821,5822,5863,5862
4641,5536,5537,5578,5577,5823,5824,5865,5864
4642,5537,5538,5579,5578,5824,5825,5866,5865
4643,5538,5539,5580,5579,5825,5826,5867,5866
4644,5539,5540,5581,5580,5826,5827,5868,5867
4645,5540,5541,5582,5581,5827,5828,5869,5868
4646,5541,5542,5583,5582,5828,5829,5870,5869
4647,5542,5543,5584,5583,5829,5830,5871,5870
4648,5543,5544,5585,5584,5830,5831,5872,5871
4649,5544,5545,5586,5585,5831,5832,5873,5872
4650,5545,5546,5587,5586,5832,5833,5874,5873
4651,5546,5547,5588,5587,5833,5834,5875,5874
4652,5547,5548,5589,5588,5834,5835,5876,5875
4653,5548,5549,5590,5589,5835,5836,5877,5876
4654,5549,5550,5591,5590,5836,5837,5878,5877
4655,5550,5551,5592,5591,5837,5838,5879,5878
4656,5551,5552,5593,5592,5838,5839,5880,5879
4657,5552,5553,5594,5593,5839,5840,5881,5880
4658,5553,5554,5595,5594,5840,5841,5882,5881
4659,5554,5555,5596,5595,5841,5842,5883,5882
4660,5555,5556,5597,5596,5842,5843,5884,5883
4661,5556,5557,5598,5597,5843,5844,5885,5884
4662,5557,5558,5599,5598,5844,5845,5886,5885
4663,5558,5559,5600,5599,5845,5846,5887,5886
4664,5559,5560,5601,5600,5846,5847,5888,5887
4665,5560,5561,5602,5601,5847,5848,5889,5888
4666,5561,5562,5603,5602,5848,5849,5890,5889
4667,5562,5563,5604,5603,5849,5850,5891,5890
4668,5563,5564,5605,5604,5850,5851,5892,5891
4669,5564,5565,5606,5605,5851,5852,5893,5892
4670,5565,5566,5607,5606,5852,5853,5894,5893
4671,5566,5567,5608,5607,5853,5854,5895,5894
4672,5567,5568,5609,5608,5854,5855,5896,5895
4673,5568,5569,5610,5609,5855,5856,5897,5896
4674,5569,5570,5611,5610,5856,5857,5898,5897
4675,5570,5571,5612,5611,5857,5858,5899,5898
4676,5571,5572,5613,5612,5858,5859,5900,5899
4677,5572,5573,5614,5613,5859,5860,5901,5900
4678,5573,5574,5615,5614,5860,5861,5902,5901
4679,5574,5575,5616,5615,5861,5862,5903,5902
4680,5575,5576,5617,5616,5862,5863,5904,5903
4681,5577,5578,5619,5618,5864,5865,5906,5905
4682,5578,5579,5620,5619,5865,5866,5907,5906
4683,5579,5580,5621,5620,5866,5867,5908,5907
4684,5580,5581,5622,5621,5867,5868,5909,5908
4685,5581,5582,5623,5622,5868,5869,5910,5909
4686,5582,5583,5624,5623,5869,5870,5911,5910
4687,5583,5584,5625,5624,5870,5871,5912,5911
4688,5584,5585,5626,5625,5871,5872,5913,5912
4689,5585,5586,5627,5626,5872,5873,5914,5913
4690,5586,5587,5628,5627,5873,5874,5915,5914
4691,5587,5588,5629,5628,5874,5875,5916,5915
4692,5588,5589,5630,5629,5875,5876,5917,5916
4693,5589,5590,5631,5630,5876,5877,5918,5917
4694,5590,5591,5632,5631,5877,5878,5919,5918
4695,5591,5592,5633,5632,5878,5879,5920,5919
4696,5592,5593,5634,5633,5879,5880,5921,5920
4697,5593,5594,5635,5634,5880,5881,5922,5921
4698,5594,5595,5636,5635,5881,5882,5923,5922
4699,5595,5596,5637,5636,5882,5883,5924,5923
4700,5596,5597,5638,5637,5883,5884,5925,5924
4701,5597,5598,5639,5638,5884,5885,5926,5925
4702,5598,5599,5640,5639,5885,5886,5927,5926
4703,5599,5600,5641,5640,5886,5887,5928,5927
4704,5600,5601,5642,5641,5887,5888,5929,5928
4705,5601,5602,5643,5642,5888,5889,5930,5929
4706,5602,5603,5644,5643,5889,5890,5931,5930
4707,5603,5604,5645,5644,5890,5891,5932,5931
4708,5604,5605,5646,5645,5891,5892,5933,5932
4709,5605,5606,5647,5646,5892,5893,5934,5933
4710,5606,5607,5648,5647,5893,5894,5935,5934
4711,5607,5608,5649,5648,5894,5895,5936,5935
4712,5608,5609,5650,5649,5895,5896,5937,5936
4713,5609,5610,5651,5650,5896,5897,5938,5937
4714,5610,5611,5652,5651,5897,5898,5939,5938
4715,5611,5612,5653,5652,5898,5899,5940,5939
4716,5612,5613,5654,5653,5899,5900,5941,5940
4717,5613,5614,5655,5654,5900,5901,5942,5941
4718,5614,5615,5656,5655,5901,5902,5943,5942
4719,5615,5616,5657,5656,5902,5903,5944,5943
4720,5616,5617,5658,5657,5903,5904,5945,5944
4721,5618,5619,5660,5659,5905,5906,5947,5946
4722,5619,5620,5661,5660,5906,5907,5948,5947
4723,5620,5621,5662,5661,5907,5908,5949,5948
4724,5621,5622,5663,5662,5908,5909,5950,5949
4725,5622,5623,5664,5663,5909,5910,5951,5950
4726,5623,5624,5665,5664,5910,5911,5952,5951
4727,5624,5625,5666,5665,5911,5912,5953,5952
4728,5625,5626,5667,5666,5912,5913,5954,5953
4729,5626,5627,5668,5667,5913,5914,5955,5954
4730,5627,5628,5669,5668,5914,5915,5956,5955
4731,5628,5629,5670,5669,5915,5916,5957,5956
4732,5629,5630,5671,5670,5916,5917,5958,5957
4733,5630,5631,5672,5671,5917,5918,5959,5958
4734,5631,5632,5673,5672,5918,5919,5960,5959
4735,5632,5633,5674,5673,5919,5920,5961,5960
4736,5633,5634,5675,5674,5920,5921,5962,5961
4737,5634,5635,5676,5675,5921,5922,5963,5962
4738,5635,5636,5677,5676,5922,5923,5964,5963
4739,5636,5637,5678,5677,5923,5924,5965,5964
4740,5637,5638,5679,5678,5924,5925,5966,5965
4741,5638,5639,5680,5679,5925,5926,5967,5966
4742,5639,5640,5681,5680,5926,5927,5968,5967
4743,5640,5641,5682,5681,5927,5928,5969,5968
4744,5641,5642,5683,5682,5928,5929,5970,5969
4745,5642,5643,5684,5683,5929,5930,5971,5970
4746,5643,5644,5685,5684,5930,5931,5972,5971
4747,5644,5645,5686,5685,5931,5932,5973,5972
4748,5645,5646,5687,5686,5932,5933,5974,5973
4749,5646,5647,5688,5687,5933,5934,5975,5974
4750,5647,5648,5689,5688,5934,5935,5976,5975
4751,5648,5649,5690,5689,5935,5936,5977,5976
4752,5649,5650,5691,5690,5936,5937,5978,5977
4753,5650,5651,5692,5691,5937,5938,5979,5978
4754,5651,5652,5693,5692,5938,5939,5980,5979
4755,5652,5653,5694,5693,5939,5940,5981,5980
4756,5653,5654,5695,5694,5940,5941,5982,5981
4757,5654,5655,5696,5695,5941,5942,5983,5982
4758,5655,5656,5697,5696,5942,5943,5984,5983
4759,5656,5657,5698,5697,5943,5944,5985,5984
4760,5657,5658,5699,5698,5944,5945,5986,5985
4761,5659,5660,5701,5700,5946,5947,5988,5987
4762,5660,5661,5702,5701,5947,5948,5989,5988
4763,5661,5662,5703,5702,5948,5949,5990,5989
4764,5662,5663,5704,5703,5949,5950,5991,5990
4765,5663,5664,5705,5704,5950,5951,5992,5991
4766,5664,5665,5706,5705,5951,5952,5993,5992
4767,5665,5666,5707,5706,5952,5953,5994,5993
4768,5666,5667,5708,5707,5953,5954,5995,5994
4769,5667,5668,5709,5708,5954,5955,5996,5995
4770,5668,5669,5710,5709,5955,5956,5997,5996
4771,5669,5670,5711,5710,5956,5957,5998,5997
4772,5670,5671,5712,5711,5957,5958,5999,5998
4773,5671,5672,5713,5712,5958,5959,6000,5999
4774,5672,5673,5714,5713,5959,5960,6001,6000
4775,5673,5674,5715,5714,5960,5961,6002,6001
4776,5674,5675,5716,5715,5961,5962,6003,6002
4777,5675,5676,5717,5716,5962,5963,6004,6003
4778,5676,5677,5718,5717,5963,5964,6005,6004
4779,5677,5678,5719,5718,5964,5965,6006,6005
4780,5678,5679,5720,5719,5965,5966,6007,6006
4781,5679,5680,5721,5720,5966,5967,6008,6007
4782,5680,5681,5722,5721,5967,5968,6009,6008
4783,5681,5682,5723,5722,5968,5969,6010,6009
4784,5682,5683,5724,5723,5969,5970,6011,6010
4785,5683,5684,5725,5724,5970,5971,6012,6011
4786,5684,5685,5726,5725,5971,5972,6013,6012
4787,5685,5686,5727,5726,5972,5973,6014,6013
4788,5686,5687,5728,5727,5973,5974,6015,6014
4789,5687,5688,5729,5728,5974,5975,6016,6015
4790,5688,5689,5730,5729,5975,5976,6017,6016
4791,5689,5690,5731,5730,5976,5977,6018,6017
4792,5690,5691,5732,5731,5977,5978,6019,6018
4793,5691,5692,5733,5732,5978,5979,6020,6019
4794,5692,5693,5734,5733,5979,5980,6021,6020
4795,5693,5694,5735,5734,5980,5981,6022,6021
4796,5694,5695,5736,5735,5981,5982,6023,6022
4797,5695,5696,5737,5736,5982,5983,6024,6023
4798,5696,5697,5738,5737,5983,5984,6025,6024
4799,5697,5698,5739,5738,5984,5985,6026,6025
4800,5698,5699,5740,5739,5985,5986,6027,6026
4801,5741,5742,5783,5782,6028,6029,6070,6069
4802,5742,5743,5784,5783,6029,6030,6071,6070
4803,5743,5744,5785,5784,6030,6031,6072,6071
4804,5744,5745,5786,5785,6031,6032,6073,6072
4805,5745,5746,5787,5786,6032,6033,6074,6073
4806,5746,5747,5788,5787,6033,6034,6075,6074
4807,5747,5748,5789,5788,6034,6035,6076,6075
4808,5748,5749,5790,5789,6035,6036,6077,6076
4809,5749,5750,5791,5790,6036,6037,6078,6077
4810,5750,5751,5792,5791,6037,6038,6079,6078
4811,5751,5752,5793,5792,6038,6039,6080,6079
4812,5752,5753,5794,5793,6039,6040,6081,6080
4813,5753,5754,5795,5794,6040,6041,6082,6081
4814,5754,5755,5796,5795,6041,6042,6083,6082
4815,5755,5756,5797,5796,6042,6043,6084,6083
4816,5756,5757,5798,5797,6043,6044,6085,6084
4817,5757,5758,5799,5798,6044,6045,6086,6085
4818,5758,5759,5800,5799,6045,6046,6087,6086
4819,5759,5760,5801,5800,6046,6047,6088,6087
4820,5760,5761,5802,5801,6047,6048,6089,6088
4821,5761,5762,5803,5802,6048,6049,6090,6089
4822,5762,5763,5804,5803,6049,6050,6091,6090
4823,5763,5764,5805,5804,6050,6051,6092,6091
4824,5764,5765,5806,5805,6051,6052,6093,6092
4825,5765,5766,5807,5806,6052,6053,6094,6093
4826,5766,5767,5808,5807,6053,6054,6095,6094
4827,5767,5768,5809,5808,6054,6055,6096,6095
4828,5768,5769,5810,5809,6055,6056,6097,6096
4829,5769,5770,5811,5810,6056,6057,6098,6097
4830,5770,5771,5812,5811,6057,6058,6099,6098
4831,5771,5772,5813,5812,6058,6059,6100,6099
4832,5772,5773,5814,5813,6059,6060,6101,6100
4833,5773,5774,5815,5814,6060,6061,6102,6101
4834,5774,5775,5816,5815,6061,6062,6103,6102
4835,5775,5776,5817,5816,6062,6063,6104,6103
4836,5776,5777,5818,5817,6063,6064,6105,6104
4837,5777,5778,5819,5818,6064,6065,6106,6105
4838,5778,5779,5820,5819,6065,6066,6107,6106
4839,5779,5780,5821,5820,6066,6067,6108,6107
4840,5780,5781,5822,5821,6067,6068,6109,6108
4841,5782,5783,5824,5823,6069,6070,6111,6110
4842,5783,5784,5825,5824,6070,6071,6112,6111
4843,5784,5785,5826,5825,6071,6072,6113,6112
4844,5785,5786,5827,5826,6072,6073,6114,6113
4845,5786,5787,5828,5827,6073,6074,6115,6114
4846,5787,5788,5829,5828,6074,6075,6116,6115
4847,5788,5789,5830,5829,6075,6076,6117,6116
4848,5789,5790,5831,5830,6076,6077,6118,6117
4849,5790,5791,5832,5831,6077,6078,6119,6118
4850,5791,5792,5833,5832,6078,6079,6120,6119
4851,5792,5793,5834,5833,6079,6080,6121,6120
4852,5793,5794,5835,5834,6080,6081,6122,6121
4853,5794,5795,5836,5835,6081,6082,6123,6122
4854,5795,5796,5837,5836,6082,6083,6124,6123
4855,5796,5797,5838,5837,6083,6084,6125,6124
4856,5797,5798,5839,5838,6084,6085,6126,6125
4857,5798,5799,5840,5839,6085,6086,6127,6126
4858,5799,5800,5841,5840,6086,6087,6128,6127
4859,5800,5801,5842,5841,6087,6088,6129,6128
4860,5801,5802,5843,5842,6088,6089,6130,6129
4861,5802,5803,5844,5843,6089,6090,6131,6130
4862,5803,5804,5845,5844,6090,6091,6132,6131
4863,5804,5805,5846,5845,6091,6092,6133,6132
4864,5805,5806,5847,5846,6092,6093,6134,6133
4865,5806,5807,5848,5847,6093,6094,6135,6134
4866,5807,5808,5849,5848,6094,6095,6136,6135
4867,5808,5809,5850,5849,6095,6096,6137,6136
4868,5809,5810,5851,5850,6096,6097,6138,6137
4869,5810,5811,5852,5851,6097,6098,6139,6138
4870,5811,5812,5853,5852,6098,6099,6140,6139
4871,5812,5813,5854,5853,6099,6100,6141,6140
4872,5813,5814,5855,5854,6100,6101,6142,6141
4873,5814,5815,5856,5855,6101,6102,6143,6142
4874,5815,5816,5857,5856,6102,6103,6144,6143
4875,5816,5817,5858,5857,6103,6104,6145,6144
4876,5817,5818,5859,5858,6104,6105,6146,6145
4877,5818,5819,5860,5859,6105,6106,6147,6146
4878,5819,5820,5861,5860,6106,6107,6148,6147
4879,5820,5821,5862,5861,6107,6108,6149,6148
4880,5821,5822,5863,5862,6108,6109,6150,6149
4881,5823,5824,5865,5864,6110,6111,6152,6151
4882,5824,5825,5866,5865,6111,6112,6153,6152
4883,5825,5826,5867,5866,6112,6113,6154,6153
4884,5826,5827,5868,5867,6113,6114,6155,6154
4885,5827,5828,5869,5868,6114,6115,6156,6155
4886,5828,5829,5870,5869,6115,6116,6157,6156
4887,5829,5830,5871,5870,6116,6117,6158,6157
4888,5830,5831,5872,5871,6117,6118,6159,6158
4889,5831,5832,5873,5872,6118,6119,6160,6159
4890,5832,5833,5874,5873,6119,6120,6161,6160
4891,5833,5834,5875,5874,6120,6121,6162,6161
4892,5834,5835,5876,5875,6121,6122,6163,6162
4893,5835,5836,5877,5876,6122,6123,6164,6163
4894,5836,5837,5878,5877,6123,6124,6165,6164
4895,5837,5838,5879,5878,6124,6125,6166,6165
4896,5838,5839,5880,5879,6125,6126,6167,6166
4897,5839,5840,5881,5880,6126,6127,6168,6167
4898,5840,5841,5882,5881,6127,6128,6169,6168
4899,5841,5842,5883,5882,6128,6129,6170,6169
4900,5842,5843,5884,5883,6129,6130,6171,6170
4901,5843,5844,5885,5884,6130,6131,6172,6171
4902,5844,5845,5886,5885,6131,6132,6173,6172
4903,5845,5846,5887,5886,6132,6133,6174,6173
4904,5846,5847,5888,5887,6133,6134,6175,6174
4905,5847,5848,5889,5888,6134,6135,6176,6175
4906,5848,5849,5890,5889,6135,6136,6177,6176
4907,5849,5850,5891,5890,6136,6137,6178,6177
4908,5850,5851,5892,5891,6137,6138,6179,6178
4909,5851,5852,5893,5892,6138,6139,6180,6179
4910,5852,5853,5894,5893,6139,6140,6181,6180
4911,5853,5854,5895,5894,6140,6141,6182,6181
4912,5854,5855,5896,5895,6141,6142,6183,6182
4913,5855,5856,5897,5896,6142,6143,6184,6183
4914,5856,5857,5898,5897,6143,6144,6185,6184
4915,5857,5858,5899,5898,6144,6145,6186,6185
4916,5858,5859,5900,5899,6145,6146,6187,6186
4917,5859,5860,5901,5900,6146,6147,6188,6187
4918,5860,5861,5902,5901,6147,6148,6189,6188
4919,5861,5862,5903,5902,6148,6149,6190,6189
4920,5862,5863,5904,5903,6149,6150,6191,6190
4921,5864,5865,5906,5905,6151,6152,6193,6192
4922,5865,5866,5907,5906,6152,6153,6194,6193
4923,5866,5867,5908,5907,6153,6154,6195,6194
4924,5867,5868,5909,5908,6154,6155,6196,6195
4925,5868,5869,5910,5909,6155,6156,6197,6196
4926,5869,5870,5911,5910,6156,6157,6198,6197
4927,5870,5871,5912,5911,6157,6158,6199,6198
4928,5871,5872,5913,5912,6158,6159,6200,6199
4929,5872,5873,5914,5913,6159,6160,6201,6200
4930,5873,5874,5915,5914,6160,6161,6202,6201
4931,5874,5875,5916,5915,6161,6162,6203,6202
4932,5875,5876,5917,5916,6162,6163,6204,6203
4933,5876,5877,5918,5917,6163,6164,6205,6204
4934,5877,5878,5919,5918,6164,6165,6206,6205
4935,5878,5879,5920,5919,6165,6166,6207,6206
4936,5879,5880,5921,5920,6166,6167,6208,6207
4937,5880,5881,5922,5921,6167,6168,6209,6208
4938,5881,5882,5923,5922,6168,6169,6210,6209
4939,5882,5883,5924,5923,6169,6170,6211,6210
4940,5883,5884,5925,5924,6170,6171,6212,6211
4941,5884,5885,5926,5925,6171,6172,6213,6212
4942,5885,5886,5927,5926,6172,6173,6214,6213
4943,5886,5887,5928,5927,6173,6174,6215,6214
4944,5887,5888,5929,5928,6174,6175,6216,6215
4945,5888,5889,5930,5929,6175,6176,6217,6216
4946,5889,5890,5931,5930,6176,6177,6218,6217
4947,5890,5891,5932,5931,6177,6178,6219,6218
4948,5891,5892,5933,5932,6178,6179,6220,6219
4949,5892,5893,5934,5933,6179,6180,6221,6220
4950,5893,5894,5935,5934,6180,6181,6222,6221
4951,5894,5895,5936,5935,6181,6182,6223,6222
4952,5895,5896,5937,5936,6182,6183,6224,6223
4953,5896,5897,5938,5937,6183,6184,6225,6224
4954,5897,5898,5939,5938,6184,6185,6226,6225
4955,5898,5899,5940,5939,6185,6186,6227,6226
4956,5899,5900,5941,5940,6186,6187,6228,6227
4957,5900,5901,5942,5941,6187,6188,6229,6228
4958,5901,5902,5943,5942,6188,6189,6230,6229
4959,5902,5903,5944,5943,6189,6190,6231,6230
4960,5903,5904,5945,5944,6190,6191,6232,6231
4961,5905,5906,5947,5946,6192,6193,6234,6233
4962,5906,5907,5948,5947,6193,6194,6235,6234
4963,5907,5908,5949,5948,6194,6195,6236,6235
4964,5908,5909,5950,5949,6195,6196,6237,6236
4965,5909,5910,5951,5950,6196,6197,6238,6237
4966,5910,5911,5952,5951,6197,6198,6239,6238
4967,5911,5912,5953,5952,6198,6199,6240,6239
4968,5912,5913,5954,5953,6199,6200,6241,6240
4969,5913,5914,5955,5954,6200,6201,6242,6241
4970,5914,5915,5956,5955,6201,6202,6243,6242
4971,5915,5916,5957,5956,6202,6203,6244,6243
4972,5916,5917,5958,5957,6203,6204,6245,6244
4973,5917,5918,5959,5958,6204,6205,6246,6245
4974,5918,5919,5960,5959,6205,6206,6247,6246
4975,5919,5920,5961,5960,6206,6207,6248,6247
4976,5920,5921,5962,5961,6207,6208,6249,6248
4977,5921,5922,5963,5962,6208,6209,6250,6249
4978,5922,5923,5964,5963,6209,6210,6251,6250
4979,5923,5924,5965,5964,6210,6211,6252,6251
4980,5924,5925,5966,5965,6211,6212,6253,6252
4981,5925,5926,5967,5966,6212,6213,6254,6253
4982,5926,5927,5968,5967,6213,6214,6255,6254
4983,5927,5928,5969,5968,6214,6215,6256,6255
4984,5928,5929,5970,5969,6215,6216,6257,6256
4985,5929,5930,5971,5970,6216,6217,6258,6257
4986,5930,5931,5972,5971,6217,6218,6259,6258
4987,5931,5932,5973,5972,6218,6219,6260,6259
4988,5932,5933,5974,5973,6219,6220,6261,6260
4989,5933,5934,5975,5974,6220,6221,6262,6261
4990,5934,5935,5976,5975,6221,6222,6263,6262
4991,5935,5936,5977,5976,6222,6223,6264,6263
4992,5936,5937,5978,5977,6223,6224,6265,6264
4993,5937,5938,5979,5978,6224,6225,6266,6265
4994,5938,5939,5980,5979,6225,6226,6267,6266
4995,5939,5940,5981,5980,6226,6227,6268,6267
4996,5940,5941,5982,5981,6227,6228,6269,6268
4997,5941,5942,5983,5982,6228,6229,6270,6269
4998,5942,5943,5984,5983,6229,6230,6271,6270
4999,5943,5944,5985,5984,6230,6231,6272,6271
5000,5944,5945,5986,5985,6231,6232,6273,6272
5001,5946,5947,5988,5987,6233,6234,6275,6274
5002,5947,5948,5989,5988,6234,6235,6276,6275
5003,5948,5949,5990,5989,6235,6236,6277,6276
5004,5949,5950,5991,5990,6236,6237,6278,6277
5005,5950,5951,5992,5991,6237,6238,6279,6278
5006,5951,5952,5993,5992,6238,6239,6280,6279
5007,5952,5953,5994,5993,6239,6240,6281,6280
5008,5953,5954,5995,5994,6240,6241,6282,6281
5009,5954,5955,5996,5995,6241,6242,6283,6282
5010,5955,5956,5997,5996,6242,6243,6284,6283
5011,5956,5957,5998,5997,6243,6244,6285,6284
5012,5957,5958,5999,5998,6244,6245,6286,6285
5013,5958,5959,6000,5999,6245,6246,6287,6286
5014,5959,5960,6001,6000,6246,6247,6288,6287
5015,5960,5961,6002,6001,6247,6248,6289,6288
5016,5961,5962,6003,6002,6248,6249,6290,6289
5017,5962,5963,6004,6003,6249,6250,6291,6290
5018,5963,5964,6005,6004,6250,6251,6292,6291
5019,5964,5965,6006,6005,6251,6252,6293,6292
5020,5965,5966,6007,6006,6252,6253,6294,6293
5021,5966,5967,6008,6007,6253,6254,6295,6294
5022,5967,5968,6009,6008,6254,6255,6296,6295
5023,5968,5969,6010,6009,6255,6256,6297,6296
5024,5969,5970,6011,6010,6256,6257,6298,6297
5025,5970,5971,6012,6011,6257,6258,6299,6298
5026,5971,5972,6013,6012,6258,6259,6300,6299
5027,5972,5973,6014,6013,6259,6260,6301,6300
5028,5973,5974,6015,6014,6260,6261,6302,6301
5029,5974,5975,6016,6015,6261,6262,6303,6302
5030,5975,5976,6017,6016,6262,6263,6304,6303
5031,5976,5977,6018,6017,6263,6264,6305,6304
5032,5977,5978,6019,6018,6264,6265,6306,6305
5033,5978,5979,6020,6019,6265,6266,6307,6306
5034,5979,5980,6021,6020,6266,6267,6308,6307
5035,5980,5981,6022,6021,6267,6268,6309,6308
5036,5981,5982,6023,6022,6268,6269,6310,6309
5037,5982,5983,6024,6023,6269,6270,6311,6310
5038,5983,5984,6025,6024,6270,6271,6312,6311
5039,5984,5985,6026,6025,6271,6272,6313,6312
5040,5985,5986,6027,6026,6272,6273,6314,6313
5041,6028,6029,6070,6069,6315,6316,6357,6356
5042,6029,6030,6071,6070,6316,6317,6358,6357
5043,6030,6031,6072,6071,6317,6318,6359,6358
5044,6031,6032,6073,6072,6318,6319,6360,6359
5045,6032,6033,6074,6073,6319,6320,6361,6360
5046,6033,6034,6075,6074,6320,6321,6362,6361
5047,6034,6035,6076,6075,6321,6322,6363,6362
5048,6035,6036,6077,6076,6322,6323,6364,6363
5049,6036,6037,6078,6077,6323,6324,6365,6364
5050,6037,6038,6079,6078,6324,6325,6366,6365
5051,6038,6039,6080,6079,6325,6326,6367,6366
5052,6039,6040,6081,6080,6326,6327,6368,6367
5053,6040,6041,6082,6081,6327,6328,6369,6368
5054,6041,6042,6083,6082,6328,6329,6370,6369
5055,6042,6043,6084,6083,6329,6330,6371,6370
5056,6043,6044,6085,6084,6330,6331,6372,6371
5057,6044,6045,6086,6085,6331,6332,6373,6372
5058,6045,6046,6087,6086,6332,6333,6374,6373
5059,6046,6047,6088,6087,6333,6334,6375,6374
5060,6047,6048,6089,6088,6334,6335,6376,6375
5061,6048,6049,6090,6089,6335,6336,6377,6376
5062,6049,6050,6091,6090,6336,6337,6378,6377
5063,6050,6051,6092,6091,6337,6338,6379,6378
5064,6051,6052,6093,6092,6338,6339,6380,6379
5065,6052,6053,6094,6093,6339,6340,6381,6380
5066,6053,6054,6095,6094,6340,6341,6382,6381
5067,6054,6055,6096,6095,6341,6342,6383,6382
5068,6055,6056,6097,6096,6342,6343,6384,6383
5069,6056,6057,6098,6097,6343,6344,6385,6384
5070,6057,6058,6099,6098,6344,6345,6386,6385
5071,6058,6059,6100,6099,6345,6346,6387,6386
5072,6059,6060,6101,6100,6346,6347,6388,6387
5073,6060,6061,6102,6101,6347,6348,6389,6388
5074,6061,6062,6103,6102,6348,6349,6390,6389
5075,6062,6063,6104,6103,6349,6350,6391,6390
5076,6063,6064,6105,6104,6350,6351,6392,6391
5077,6064,6065,6106,6105,6351,6352,6393,6392
5078,6065,6066,6107,6106,6352,6353,6394,6393
5079,6066,6067,6108,6107,6353,6354,6395,6394
5080,6067,6068,6109,6108,6354,6355,6396,6395
5081,6069,6070,6111,6110,6356,6357,6398,6397
5082,6070,6071,6112,6111,6357,6358,6399,6398
5083,6071,6072,6113,6112,6358,6359,6400,6399
5084,6072,6073,6114,6113,6359,6360,6401,6400
5085,6073,6074,6115,6114,6360,6361,6402,6401
5086,6074,6075,6116,6115,6361,6362,6403,6402
5087,6075,6076,6117,6116,6362,6363,6404,6403
5088,6076,6077,6118,6117,6363,6364,6405,6404
5089,6077,6078,6119,6118,6364,6365,6406,6405
5090,6078,6079,6120,6119,6365,6366,6407,6406
5091,6079,6080,6121,6120,6366,6367,6408,6407
5092,6080,6081,6122,6121,6367,6368,6409,6408
5093,6081,6082,6123,6122,6368,6369,6410,6409
5094,6082,6083,6124,6123,6369,6370,6411,6410
5095,6083,6084,6125,6124,6370,6371,6412,6411
5096,6084,6085,6126,6125,6371,6372,6413,6412
5097,6085,6086,6127,6126,6372,6373,6414,6413
5098,6086,6087,6128,6127,6373,6374,6415,6414
5099,6087,6088,6129,6128,6374,6375,6416,6415
5100,6088,6089,6130,6129,6375,6376,6417,6416
5101,6089,6090,6131,6130,6376,6377,6418,6417
5102,6090,6091,6132,6131,6377,6378,6419,6418
5103,6091,6092,6133,6132,6378,6379,6420,6419
5104,6092,6093,6134,6133,6379,6380,6421,6420
5105,6093,6094,6135,6134,6380,6381,6422,6421
5106,6094,6095,6136,6135,6381,6382,6423,6422
5107,6095,6096,6137,6136,6382,6383,6424,6423
5108,6096,6097,6138,6137,6383,6384,6425,6424
5109,6097,6098,6139,6138,6384,6385,6426,6425
5110,6098,6099,6140,6139,6385,6386,6427,6426
5111,6099,6100,6141,6140,6386,6387,6428,6427
5112,6100,6101,6142,6141,6387,6388,6429,6428
5113,6101,6102,6143,6142,6388,6389,6430,6429
5114,6102,6103,6144,6143,6389,6390,6431,6430
5115,6103,6104,6145,6144,6390,6391,6432,6431
5116,6104,6105,6146,6145,6391,6392,6433,6432
5117,6105,6106,6147,6146,6392,6393,6434,6433
5118,6106,6107,6148,6147,6393,6394,6435,6434
5119,6107,6108,6149,6148,6394,6395,6436,6435
5120,6108,6109,6150,6149,6395,6396,6437,6436
5121,6110,6111,6152,6151,6397,6398,6439,6438
5122,6111,6112,6153,6152,6398,6399,6440,6439
5123,6112,6113,6154,6153,6399,6400,6441,6440
5124,6113,6114,6155,6154,6400,6401,6442,6441
5125,6114,6115,6156,6155,6401,6402,6443,6442
5126,6115,6116,6157,6156,6402,6403,6444,6443
5127,6116,6117,6158,6157,6403,6404,6445,6444
5128,6117,6118,6159,6158,6404,6405,6446,6445
5129,6118,6119,6160,6159,6405,6406,6447,6446
5130,6119,6120,6161,6160,6406,6407,6448,6447
5131,6120,6121,6162,6161,6407,6408,6449,6448
5132,6121,6122,6163,6162,6408,6409,6450,6449
5133,6122,6123,6164,6163,6409,6410,6451,6450
5134,6123,6124,6165,6164,6410,6411,6452,6451
5135,6124,6125,6166,6165,6411,6412,6453,6452
5136,6125,6126,6167,6166,6412,6413,6454,6453
5137,6126,6127,6168,6167,6413,6414,6455,6454
5138,6127,6128,6169,6168,6414,6415,6456,6455
5139,6128,6129,6170,6169,6415,6416,6457,6456
5140,6129,6130,6171,6170,6416,6417,6458,6457
5141,6130,6131,6172,6171,6417,6418,6459,6458
5142,6131,6132,6173,6172,6418,6419,6460,6459
5143,6132,6133,6174,6173,6419,6420,6461,6460
5144,6133,6134,6175,6174,6420,6421,6462,6461
5145,6134,6135,6176,6175,6421,6422,6463,6462
5146,6135,6136,6177,6176,6422,6423,6464,6463
5147,6136,6137,6178,6177,6423,6424,6465,6464
5148,6137,6138,6179,6178,6424,6425,6466,6465
5149,6138,6139,6180,6179,6425,6426,6467,6466
5150,6139,6140,6181,6180,6426,6427,6468,6467
5151,6140,6141,6182,6181,6427,6428,6469,6468
5152,6141,6142,6183,6182,6428,6429,6470,6469
5153,6142,6143,6184,6183,6429,6430,6471,6470
5154,6143,6144,6185,6184,6430,6431,6472,6471
5155,6144,6145,6186,6185,6431,6432,6473,6472
5156,6145,6146,6187,6186,6432,6433,6474,6473
5157,6146,6147,6188,6187,6433,6434,6475,6474
5158,6147,6148,6189,6188,6434,6435,6476,6475
5159,6148,6149,6190,6189,6435,6436,6477,6476
5160,6149,6150,6191,6190,6436,6437,6478,6477
5161,6151,6152,6193,6192,6438,6439,6480,6479
5162,6152,6153,6194,6193,6439,6440,6481,6480
5163,6153,6154,6195,6194,6440,6441,6482,6481
5164,6154,6155,6196,6195,6441,6442,6483,6482
5165,6155,6156,6197,6196,6442,6443,6484,6483
5166,6156,6157,6198,6197,6443,6444,6485,6484
5167,6157,6158,6199,6198,6444,6445,6486,6485
5168,6158,6159,6200,6199,6445,6446,6487,6486
5169,6159,6160,6201,6200,6446,6447,6488,6487
5170,6160,6161,6202,6201,6447,6448,6489,6488
5171,6161,6162,6203,6202,6448,6449,6490,6489
5172,6162,6163,6204,6203,6449,6450,6491,6490
5173,6163,6164,6205,6204,6450,6451,6492,6491
5174,6164,6165,6206,6205,6451,6452,6493,6492
5175,6165,6166,6207,6206,6452,6453,6494,6493
5176,6166,6167,6208,6207,6453,6454,6495,6494
5177,6167,6168,6209,6208,6454,6455,6496,6495
5178,6168,6169,6210,6209,6455,6456,6497,6496
5179,6169,6170,6211,6210,6456,6457,6498,6497
5180,6170,6171,6212,6211,6457,6458,6499,6498
5181,6171,6172,6213,6212,6458,6459,6500,6499
5182,6172,6173,6214,6213,6459,6460,6501,6500
5183,6173,6174,6215,6214,6460,6461,6502,6501
5184,6174,6175,6216,6215,6461,6462,6503,6502
5185,6175,6176,6217,6216,6462,6463,6504,6503
5186,6176,6177,6218,6217,6463,6464,6505,6504
5187,6177,6178,6219,6218,6464,6465,6506,6505
5188,6178,6179,6220,6219,6465,6466,6507,6506
5189,6179,6180,6221,6220,6466,6467,6508,6507
5190,6180,6181,6222,6221,6467,6468,6509,6508
5191,6181,6182,6223,6222,6468,6469,6510,6509
5192,6182,6183,6224,6223,6469,6470,6511,6510
5193,6183,6184,6225,6224,6470,6471,6512,6511
5194,6184,6185,6226,6225,6471,6472,6513,6512
5195,6185,6186,6227,6226,6472,6473,6514,6513
5196,6186,6187,6228,6227,6473,6474,6515,6514
5197,6187,6188,6229,6228,6474,6475,6516,6515
5198,6188,6189,6230,6229,6475,6476,6517,6516
5199,6189,6190,6231,6230,6476,6477,6518,6517
5200,6190,6191,6232,6231,6477,6478,6519,6518
5201,6192,6193,6234,6233,6479,6480,6521,6520
5202,6193,6194,6235,6234,6480,6481,6522,6521
5203,6194,6195,6236,6235,6481,6482,6523,6522
5204,6195,6196,6237,6236,6482,6483,6524,6523
5205,6196,6197,6238,6237,6483,6484,6525,6524
5206,6197,6198,6239,6238,6484,6485,6526,6525
5207,6198,6199,6240,6239,6485,6486,6527,6526
5208,6199,6200,6241,6240,6486,6487,6528,6527
5209,6200,6201,6242,6241,6487,6488,6529,6528
5210,6201,6202,6243,6242,6488,6489,6530,6529
5211,6202,6203,6244,6243,6489,6490,6531,6530
5212,6203,6204,6245,6244,6490,6491,6532,6531
5213,6204,6205,6246,6245,6491,6492,6533,6532
5214,6205,6206,6247,6246,6492,6493,6534,6533
5215,6206,6207,6248,6247,6493,6494,6535,6534
5216,6207,6208,6249,6248,6494,6495,6536,6535
5217,6208,6209,6250,6249,6495,6496,6537,6536
5218,6209,6210,6251,6250,6496,6497,6538,6537
5219,6210,6211,6252,6251,6497,6498,6539,6538
5220,6211,6212,6253,6252,6498,6499,6540,6539
5221,6212,6213,6254,6253,6499,6500,6541,6540
5222,6213,6214,6255,6254,6500,6501,6542,6541
5223,6214,6215,6256,6255,6501,6502,6543,6542
5224,6215,6216,6257,6256,6502,6503,6544,6543
5225,6216,6217,6258,6257,6503,6504,6545,6544
5226,6217,6218,6259,6258,6504,6505,6546,6545
5227,6218,6219,6260,6259,6505,6506,6547,6546
5228,6219,6220,6261,6260,6506,6507,6548,6547
5229,6220,6221,6262,6261,6507,6508,6549,6548
5230,6221,6222,6263,6262,6508,6509,6550,6549
5231,6222,6223,6264,6263,6509,6510,6551,6550
5232,6223,6224,6265,6264,6510,6511,6552,6551
5233,6224,6225,6266,6265,6511,6512,6553,6552
5234,6225,6226,6267,6266,6512,6513,6554,6553
5235,6226,6227,6268,6267,6513,6514,6555,6554
5236,6227,6228,6269,6268,6514,6515,6556,6555
5237,6228,6229,6270,6269,6515,6516,6557,6556
5238,6229,6230,6271,6270,6516,6517,6558,6557
5239,6230,6231,6272,6271,6517,6518,6559,6558
5240,6231,6232,6273,6272,6518,6519,6560,6559
5241,6233,6234,6275,6274,6520,6521,6562,6561
5242,6234,6235,6276,6275,6521,6522,6563,6562
5243,6235,6236,6277,6276,6522,6523,6564,6563
5244,6236,6237,6278,6277,6523,6524,6565,6564
5245,6237,6238,6279,6278,6524,6525,6566,6565
5246,6238,6239,6280,6279,6525,6526,6567,6566
5247,6239,6240,6281,6280,6526,6527,6568,6567
5248,6240,6241,6282,6281,6527,6528,6569,6568
5249,6241,6242,6283,6282,6528,6529,6570,6569
5250,6242,6243,6284,6283,6529,6530,6571,6570
5251,6243,6244,6285,6284,6530,6531,6572,6571
5252,6244,6245,6286,6285,6531,6532,6573,6572
5253,6245,6246,6287,6286,6532,6533,6574,6573
5254,6246,6247,6288,6287,6533,6534,6575,6574
5255,6247,6248,6289,6288,6534,6535,6576,6575
5256,6248,6249,6290,6289,6535,6536,6577,6576
5257,6249,6250,6291,6290,6536,6537,6578,6577
5258,6250,6251,6292,6291,6537,6538,6579,6578
5259,6251,6252,6293,6292,6538,6539,6580,6579
5260,6252,6253,6294,6293,6539,6540,6581,6580
5261,6253,6254,6295,6294,6540,6541,6582,6581
5262,6254,6255,6296,6295,6541,6542,6583,6582
5263,6255,6256,6297,6296,6542,6543,6584,6583
5264,6256,6257,6298,6297,6543,6544,6585,6584
5265,6257,6258,6299,6298,6544,6545,6586,6585
5266,6258,6259,6300,6299,6545,6546,6587,6586
5267,6259,6260,6301,6300,6546,6547,6588,6587
5268,6260,6261,6302,6301,6547,6548,6589,6588
5269,6261,6262,6303,6302,6548,6549,6590,6589
5270,6262,6263,6304,6303,6549,6550,6591,6590
5271,6263,6264,6305,6304,6550,6551,6592,6591
5272,6264,6265,6306,6305,6551,6552,6593,6592
5273,6265,6266,6307,6306,6552,6553,6594,6593
5274,6266,6267,6308,6307,6553,6554,6595,6594
5275,6267,6268,6309,6308,6554,6555,6596,6595
5276,6268,6269,6310,6309,6555,6556,6597,6596
5277,6269,6270,6311,6310,6556,6557,6598,6597
5278,6270,6271,6312,6311,6557,6558,6599,6598
5279,6271,6272,6313,6312,6558,6559,6600,6599
5280,6272,6273,6314,6313,6559,6560,6601,6600
5281,6315,6316,6357,6356,6602,6603,6644,6643
5282,6316,6317,6358,6357,6603,6604,6645,6644
5283,6317,6318,6359,6358,6604,6605,6646,6645
5284,6318,6319,6360,6359,6605,6606,6647,6646
5285,6319,6320,6361,6360,6606,6607,6648,6647
5286,6320,6321,6362,6361,6607,6608,6649,6648
5287,6321,6322,6363,6362,6608,6609,6650,6649
5288,6322,6323,6364,6363,6609,6610,6651,6650
5289,6323,6324,6365,6364,6610,6611,6652,6651
5290,6324,6325,6366,6365,6611,6612,6653,6652
5291,6325,6326,6367,6366,6612,6613,6654,6653
5292,6326,6327,6368,6367,6613,6614,6655,6654
5293,6327,6328,6369,6368,6614,6615,6656,6655
5294,6328,6329,6370,6369,6615,6616,6657,6656
5295,6329,6330,6371,6370,6616,6617,6658,6657
5296,6330,6331,6372,6371,6617,6618,6659,6658
5297,6331,6332,6373,6372,6618,6619,6660,6659
5298,6332,6333,6374,6373,6619,6620,6661,6660
5299,6333,6334,6375,6374,6620,6621,6662,6661
5300,6334,6335,6376,6375,6621,6622,6663,6662
5301,6335,6336,6377,6376,6622,6623,6664,6663
5302,6336,6337,6378,6377,6623,6624,6665,6664
5303,6337,6338,6379,6378,6624,6625,6666,6665
5304,6338,6339,6380,6379,6625,6626,6667,6666
5305,6339,6340,6381,6380,6626,6627,6668,6667
5306,6340,6341,6382,6381,6627,6628,6669,6668
5307,6341,6342,6383,6382,6628,6629,6670,6669
5308,6342,6343,6384,6383,6629,6630,6671,6670
5309,6343,6344,6385,6384,6630,6631,6672,6671
5310,6344,6345,6386,6385,6631,6632,6673,6672
5311,6345,6346,6387,6386,6632,6633,6674,6673
5312,6346,6347,6388,6387,6633,6634,6675,6674
5313,6347,6348,6389,6388,6634,6635,6676,6675
5314,6348,6349,6390,6389,6635,6636,6677,6676
5315,6349,6350,6391,6390,6636,6637,6678,6677
5316,6350,6351,6392,6391,6637,6638,6679,6678
5317,6351,6352,6393,6392,6638,6639,6680,6679
5318,6352,6353,6394,6393,6639,6640,6681,6680
5319,6353,6354,6395,6394,6640,6641,6682,6681
5320,6354,6355,6396,6395,6641,6642,6683,6682
5321,6356,6357,6398,6397,6643,6644,6685,6684
5322,6357,6358,6399,6398,6644,6645,6686,6685
5323,6358,6359,6400,6399,6645,6646,6687,6686
5324,6359,6360,6401,6400,6646,6647,6688,6687
5325,6360,6361,6402,6401,6647,6648,6689,6688
5326,6361,6362,6403,6402,6648,6649,6690,6689
5327,6362,6363,6404,6403,6649,6650,6691,6690
5328,6363,6364,6405,6404,6650,6651,6692,6691
5329,6364,6365,6406,6405,6651,6652,6693,6692
5330,6365,6366,6407,6406,6652,6653,6694,6693
5331,6366,6367,6408,6407,6653,6654,6695,6694
5332,6367,6368,6409,6408,6654,6655,6696,6695
5333,6368,6369,6410,6409,6655,6656,6697,6696
5334,6369,6370,6411,6410,6656,6657,6698,6697
5335,6370,6371,6412,6411,6657,6658,6699,6698
5336,6371,6372,6413,6412,6658,6659,6700,6699
5337,6372,6373,6414,6413,6659,6660,6701,6700
5338,6373,6374,6415,6414,6660,6661,6702,6701
5339,6374,6375,6416,6415,6661,6662,6703,6702
5340,6375,6376,6417,6416,6662,6663,6704,6703
5341,6376,6377,6418,6417,6663,6664,6705,6704
5342,6377,6378,6419,6418,6664,6665,6706,6705
5343,6378,6379,6420,6419,6665,6666,6707,6706
5344,6379,6380,6421,6420,6666,6667,6708,6707
5345,6380,6381,6422,6421,6667,6668,6709,6708
5346,6381,6382,6423,6422,6668,6669,6710,6709
5347,6382,6383,6424,6423,6669,6670,6711,6710
5348,6383,6384,6425,6424,6670,6671,6712,6711
5349,6384,6385,6426,6425,6671,6672,6713,6712
5350,6385,6386,6427,6426,6672,6673,6714,6713
5351,6386,6387,6428,6427,6673,6674,6715,6714
5352,6387,6388,6429,6428,6674,6675,6716,6715
5353,6388,6389,6430,6429,6675,6676,6717,6716
5354,6389,6390,6431,6430,6676,6677,6718,6717
5355,6390,6391,6432,6431,6677,6678,6719,6718
5356,6391,6392,6433,6432,6678,6679,6720,6719
5357,6392,6393,6434,6433,6679,6680,6721,6720
5358,6393,6394,6435,6434,6680,6681,6722,6721
5359,6394,6395,6436,6435,6681,6682,6723,6722
5360,6395,6396,6437,6436,6682,6683,6724,6723
5361,6397,6398,6439,6438,6684,6685,6726,6725
5362,6398,6399,6440,6439,6685,6686,6727,6726
5363,6399,6400,6441,6440,6686,6687,6728,6727
5364,6400,6401,6442,6441,6687,6688,6729,6728
5365,6401,6402,6443,6442,6688,6689,6730,6729
5366,6402,6403,6444,6443,6689,6690,6731,6730
5367,6403,6404,6445,6444,6690,6691,6732,6731
5368,6404,6405,6446,6445,6691,6692,6733,6732
5369,6405,6406,6447,6446,6692,6693,6734,6733
5370,6406,6407,6448,6447,6693,6694,6735,6734
5371,6407,6408,6449,6448,6694,6695,6736,6735
5372,6408,6409,6450,6449,6695,6696,6737,6736
5373,6409,6410,6451,6450,6696,6697,6738,6737
5374,6410,6411,6452,6451,6697,6698,6739,6738
5375,6411,6412,6453,6452,6698,6699,6740,6739
5376,6412,6413,6454,6453,6699,6700,6741,6740
5377,6413,6414,6455,6454,6700,6701,6742,6741
5378,6414,6415,6456,6455,6701,6702,6743,6742
5379,6415,6416,6457,6456,6702,6703,6744,6743
5380,6416,6417,6458,6457,6703,6704,6745,6744
5381,6417,6418,6459,6458,6704,6705,6746,6745
5382,6418,6419,6460,6459,6705,6706,6747,6746
5383,6419,6420,6461,6460,6706,6707,6748,6747
5384,6420,6421,6462,6461,6707,6708,6749,6748
5385,6421,6422,6463,6462,6708,6709,6750,6749
5386,6422,6423,6464,6463,6709,6710,6751,6750
5387,6423,6424,6465,6464,6710,6711,6752,6751
5388,6424,6425,6466,6465,6711,6712,6753,6752
5389,6425,6426,6467,6466,6712,6713,6754,6753
5390,6426,6427,6468,6467,6713,6714,6755,6754
5391,6427,6428,6469,6468,6714,6715,6756,6755
5392,6428,6429,6470,6469,6715,6716,6757,6756
5393,6429,6430,6471,6470,6716,6717,6758,6757
5394,6430,6431,6472,6471,6717,6718,6759,6758
5395,6431,6432,6473,6472,6718,6719,6760,6759
5396,6432,6433,6474,6473,6719,6720,6761,6760
5397,6433,6434,6475,6474,6720,6721,6762,6761
5398,6434,6435,6476,6475,6721,6722,6763,6762
5399,6435,6436,6477,6476,6722,6723,6764,6763
5400,6436,6437,6478,6477,6723,6724,6765,6764
5401,6438,6439,6480,6479,6725,6726,6767,6766
5402,6439,6440,6481,6480,6726,6727,6768,6767
5403,6440,6441,6482,6481,6727,6728,6769,6768
5404,6441,6442,6483,6482,6728,6729,6770,6769
5405,6442,6443,6484,6483,6729,6730,6771,6770
5406,6443,6444,6485,6484,6730,6731,6772,6771
5407,6444,6445,6486,6485,6731,6732,6773,6772
5408,6445,6446,6487,6486,6732,6733,6774,6773
5409,6446,6447,6488,6487,6733,6734,6775,6774
5410,6447,6448,6489,6488,6734,6735,6776,6775
5411,6448,6449,6490,6489,6735,6736,6777,6776
5412,6449,6450,6491,6490,6736,6737,6778,6777
5413,6450,6451,6492,6491,6737,6738,6779,6778
5414,6451,6452,6493,6492,6738,6739,6780,6779
5415,6452,6453,6494,6493,6739,6740,6781,6780
5416,6453,6454,6495,6494,6740,6741,6782,6781
5417,6454,6455,6496,6495,6741,6742,6783,6782
5418,6455,6456,6497,6496,6742,6743,6784,6783
5419,6456,6457,6498,6497,6743,6744,6785,6784
5420,6457,6458,6499,6498,6744,6745,6786,6785
5421,6458,6459,6500,6499,6745,6746,6787,6786
5422,6459,6460,6501,6500,6746,6747,6788,6787
5423,6460,6461,6502,6501,6747,6748,6789,6788
5424,6461,6462,6503,6502,6748,6749,6790,6789
5425,6462,6463,6504,6503,6749,6750,6791,6790
5426,6463,6464,6505,6504,6750,6751,6792,6791
5427,6464,6465,6506,6505,6751,6752,6793,6792
5428,6465,6466,6507,6506,6752,6753,6794,6793
5429,6466,6467,6508,6507,6753,6754,6795,6794
5430,6467,6468,6509,6508,6754,6755,6796,6795
5431,6468,6469,6510,6509,6755,6756,6797,6796
5432,6469,6470,6511,6510,6756,6757,6798,6797
5433,6470,6471,6512,6511,6757,6758,6799,6798
5434,6471,6472,6513,6512,6758,6759,6800,6799
5435,6472,6473,6514,6513,6759,6760,6801,6800
5436,6473,6474,6515,6514,6760,6761,6802,6801
5437,6474,6475,6516,6515,6761,6762,6803,6802
5438,6475,6476,6517,6516,6762,6763,6804,6803
5439,6476,6477,6518,6517,6763,6764,6805,6804
5440,6477,6478,6519,6518,6764,6765,6806,6805
5441,6479,6480,6521,6520,6766,6767,6808,6807
5442,6480,6481,6522,6521,6767,6768,6809,6808
5443,6481,6482,6523,6522,6768,6769,6810,6809
5444,6482,6483,6524,6523,6769,6770,6811,6810
5445,6483,6484,6525,6524,6770,6771,6812,6811
5446,6484,6485,6526,6525,6771,6772,6813,6812
5447,6485,6486,6527,6526,6772,6773,6814,6813
5448,6486,6487,6528,6527,6773,6774,6815,6814
5449,6487,6488,6529,6528,6774,6775,6816,6815
5450,6488,6489,6530,6529,6775,6776,6817,6816
5451,6489,6490,6531,6530,6776,6777,6818,6817
5452,6490,6491,6532,6531,6777,6778,6819,6818
5453,6491,6492,6533,6532,6778,6779,6820,6819
5454,6492,6493,6534,6533,6779,6780,6821,6820
5455,6493,6494,6535,6534,6780,6781,6822,6821
5456,6494,6495,6536,6535,6781,6782,6823,6822
5457,6495,6496,6537,6536,6782,6783,6824,6823
5458,6496,6497,6538,6537,6783,6784,6825,6824
5459,6497,6498,6539,6538,6784,6785,6826,6825
5460,6498,6499,6540,6539,6785,6786,6827,6826
5461,6499,6500,6541,6540,6786,6787,6828,6827
5462,6500,6501,6542,6541,6787,6788,6829,6828
5463,6501,6502,6543,6542,6788,6789,6830,6829
5464,6502,6503,6544,6543,6789,6790,6831,6830
5465,6503,6504,6545,6544,6790,6791,6832,6831
5466,6504,6505,6546,6545,6791,6792,6833,6832
5467,6505,6506,6547,6546,6792,6793,6834,6833
5468,6506,6507,6548,6547,6793,6794,6835,6834
5469,6507,6508,6549,6548,6794,6795,6836,6835
5470,6508,6509,6550,6549,6795,6796,6837,6836
5471,6509,6510,6551,6550,6796,6797,6838,6837
5472,6510,6511,6552,6551,6797,6798,6839,6838
5473,6511,6512,6553,6552,6798,6799,6840,6839
5474,6512,6513,6554,6553,6799,6800,6841,6840
5475,6513,6514,6555,6554,6800,6801,6842,6841
5476,6514,6515,6556,6555,6801,6802,6843,6842
5477,6515,6516,6557,6556,6802,6803,6844,6843
5478,6516,6517,6558,6557,6803,6804,6845,6844
5479,6517,6518,6559,6558,6804,6805,6846,6845
5480,6518,6519,6560,6559,6805,6806,6847,6846
5481,6520,6521,6562,6561,6807,6808,6849,6848
5482,6521,6522,6563,6562,6808,6809,6850,6849
5483,6522,6523,6564,6563,6809,6810,6851,6850
5484,6523,6524,6565,6564,6810,6811,6852,6851
5485,6524,6525,6566,6565,6811,6812,6853,6852
5486,6525,6526,6567,6566,6812,6813,6854,6853
5487,6526,6527,6568,6567,6813,6814,6855,6854
5488,6527,6528,6569,6568,6814,6815,6856,6855
5489,6528,6529,6570,6569,6815,6816,6857,6856
5490,6529,6530,6571,6570,6816,6817,6858,6857
5491,6530,6531,6572,6571,6817,6818,6859,6858
5492,6531,6532,6573,6572,6818,6819,6860,6859
5493,6532,6533,6574,6573,6819,6820,6861,6860
5494,6533,6534,6575,6574,6820,6821,6862,6861
5495,6534,6535,6576,6575,6821,6822,6863,6862
5496,6535,6536,6577,6576,6822,6823,6864,6863
5497,6536,6537,6578,6577,6823,6824,6865,6864
5498,6537,6538,6579,6578,6824,6825,6866,6865
5499,6538,6539,6580,6579,6825,6826,6867,6866
5500,6539,6540,6581,6580,6826,6827,6868,6867
5501,6540,6541,6582,6581,6827,6828,6869,6868
5502,6541,6542,6583,6582,6828,6829,6870,6869
5503,6542,6543,6584,6583,6829,6830,6871,6870
5504,6543,6544,6585,6584,6830,6831,6872,6871
5505,6544,6545,6586,6585,6831,6832,6873,6872
5506,6545,6546,6587,6586,6832,6833,6874,6873
5507,6546,6547,6588,6587,6833,6834,6875,6874
5508,6547,6548,6589,6588,6834,6835,6876,6875
5509,6548,6549,6590,6589,6835,6836,6877,6876
5510,6549,6550,6591,6590,6836,6837,6878,6877
5511,6550,6551,6592,6591,6837,6838,6879,6878
5512,6551,6552,6593,6592,6838,6839,6880,6879
5513,6552,6553,6594,6593,6839,6840,6881,6880
5514,6553,6554,6595,6594,6840,6841,6882,6881
5515,6554,6555,6596,6595,6841,6842,6883,6882
5516,6555,6556,6597,6596,6842,6843,6884,6883
5517,6556,6557,6598,6597,6843,6844,6885,6884
5518,6557,6558,6599,6598,6844,6845,6886,6885
5519,6558,6559,6600,6599,6845,6846,6887,6886
5520,6559,6560,6601,6600,6846,6847,6888,6887
5521,6602,6603,6644,6643,6889,6890,6931,6930
5522,6603,6604,6645,6644,6890,6891,6932,6931
5523,6604,6605,6646,6645,6891,6892,6933,6932
5524,6605,6606,6647,6646,6892,6893,6934,6933
5525,6606,6607,6648,6647,6893,6894,6935,6934
5526,6607,6608,6649,6648,6894,6895,6936,6935
5527,6608,6609,6650,6649,6895,6896,6937,6936
5528,6609,6610,6651,6650,6896,6897,6938,6937
5529,6610,6611,6652,6651,6897,6898,6939,6938
5530,6611,6612,6653,6652,6898,6899,6940,6939
5531,6612,6613,6654,6653,6899,6900,6941,6940
5532,6613,6614,6655,6654,6900,6901,6942,6941
5533,6614,6615,6656,6655,6901,6902,6943,6942
5534,6615,6616,6657,6656,6902,6903,6944,6943
5535,6616,6617,6658,6657,6903,6904,6945,6944
5536,6617,6618,6659,6658,6904,6905,6946,6945
5537,6618,6619,6660,6659,6905,6906,6947,6946
5538,6619,6620,6661,6660,6906,6907,6948,6947
5539,6620,6621,6662,6661,6907,6908,6949,6948
5540,6621,6622,6663,6662,6908,6909,6950,6949
5541,6622,6623,6664,6663,6909,6910,6951,6950
5542,6623,6624,6665,6664,6910,6911,6952,6951
5543,6624,6625,6666,6665,6911,6912,6953,6952
5544,6625,6626,6667,6666,6912,6913,6954,6953
5545,6626,6627,6668,6667,6913,6914,6955,6954
5546,6627,6628,6669,6668,6914,6915,6956,6955
5547,6628,6629,6670,6669,6915,6916,6957,6956
5548,6629,6630,6671,6670,6916,6917,6958,6957
5549,6630,6631,6672,6671,6917,6918,6959,6958
5550,6631,6632,6673,6672,6918,6919,6960,6959
5551,6632,6633,6674,6673,6919,6920,6961,6960
5552,6633,6634,6675,6674,6920,6921,6962,6961
5553,6634,6635,6676,6675,6921,6922,6963,6962
5554,6635,6636,6677,6676,6922,6923,6964,6963
5555,6636,6637,6678,6677,6923,6924,6965,6964
5556,6637,6638,6679,6678,6924,6925,6966,6965
5557,6638,6639,6680,6679,6925,6926,6967,6966
5558,6639,6640,6681,6680,6926,6927,6968,6967
5559,6640,6641,6682,6681,6927,6928,6969,6968
5560,6641,6642,6683,6682,6928,6929,6970,6969
5561,6643,6644,6685,6684,6930,6931,6972,6971
5562,6644,6645,6686,6685,6931,6932,6973,6972
5563,6645,6646,6687,6686,6932,6933,6974,6973
5564,6646,6647,6688,6687,6933,6934,6975,6974
5565,6647,6648,6689,6688,6934,6935,6976,6975
5566,6648,6649,6690,6689,6935,6936,6977,6976
5567,6649,6650,6691,6690,6936,6937,6978,6977
5568,6650,6651,6692,6691,6937,6938,6979,6978
5569,6651,6652,6693,6692,6938,6939,6980,6979
5570,6652,6653,6694,6693,6939,6940,6981,6980
5571,6653,6654,6695,6694,6940,6941,6982,6981
5572,6654,6655,6696,6695,6941,6942,6983,6982
5573,6655,6656,6697,6696,6942,6943,6984,6983
5574,6656,6657,6698,6697,6943,6944,6985,6984
5575,6657,6658,6699,6698,6944,6945,6986,6985
5576,6658,6659,6700,6699,6945,6946,6987,6986
5577,6659,6660,6701,6700,6946,6947,6988,6987
5578,6660,6661,6702,6701,6947,6948,6989,6988
5579,6661,6662,6703,6702,6948,6949,6990,6989
5580,6662,6663,6704,6703,6949,6950,6991,6990
5581,6663,6664,6705,6704,6950,6951,6992,6991
5582,6664,6665,6706,6705,6951,6952,6993,6992
5583,6665,6666,6707,6706,6952,6953,6994,6993
5584,6666,6667,6708,6707,6953,6954,6995,6994
5585,6667,6668,6709,6708,6954,6955,6996,6995
5586,6668,6669,6710,6709,6955,6956,6997,6996
5587,6669,6670,6711,6710,6956,6957,6998,6997
5588,6670,6671,6712,6711,6957,6958,6999,6998
5589,6671,6672,6713,6712,6958,6959,7000,6999
5590,6672,6673,6714,6713,6959,6960,7001,7000
5591,6673,6674,6715,6714,6960,6961,7002,7001
5592,6674,6675,6716,6715,6961,6962,7003,7002
5593,6675,6676,6717,6716,6962,6963,7004,7003
5594,6676,6677,6718,6717,6963,6964,7005,7004
5595,6677,6678,6719,6718,6964,6965,7006,7005
5596,6678,6679,6720,6719,6965,6966,7007,7006
5597,6679,6680,6721,6720,6966,6967,7008,7007
5598,6680,6681,6722,6721,6967,6968,7009,7008
5599,6681,6682,6723,6722,6968,6969,7010,7009
5600,6682,6683,6724,6723,6969,6970,7011,7010
5601,6684,6685,6726,6725,6971,6972,7013,7012
5602,6685,6686,6727,6726,6972,6973,7014,7013
5603,6686,6687,6728,6727,6973,6974,7015,7014
5604,6687,6688,6729,6728,6974,6975,7016,7015
5605,6688,6689,6730,6729,6975,6976,7017,7016
5606,6689,6690,6731,6730,6976,6977,7018,7017
5607,6690,6691,6732,6731,6977,6978,7019,7018
5608,6691,6692,6733,6732,6978,6979,7020,7019
5609,6692,6693,6734,6733,6979,6980,7021,7020
5610,6693,6694,6735,6734,6980,6981,7022,7021
5611,6694,6695,6736,6735,6981,6982,7023,7022
5612,6695,6696,6737,6736,6982,6983,7024,7023
5613,6696,6697,6738,6737,6983,6984,7025,7024
5614,6697,6698,6739,6738,6984,6985,7026,7025
5615,6698,6699,6740,6739,6985,6986,7027,7026
5616,6699,6700,6741,6740,6986,6987,7028,7027
5617,6700,6701,6742,6741,6987,6988,7029,7028
5618,6701,6702,6743,6742,6988,6989,7030,7029
5619,6702,6703,6744,6743,6989,6990,7031,7030
5620,6703,6704,6745,6744,6990,6991,7032,7031
5621,6704,6705,6746,6745,6991,6992,7033,7032
5622,6705,6706,6747,6746,6992,6993,7034,7033
5623,6706,6707,6748,6747,6993,6994,7035,7034
5624,6707,6708,6749,6748,6994,6995,7036,7035
5625,6708,6709,6750,6749,6995,6996,7037,7036
5626,6709,6710,6751,6750,6996,6997,7038,7037
5627,6710,6711,6752,6751,6997,6998,7039,7038
5628,6711,6712,6753,6752,6998,6999,7040,7039
5629,6712,6713,6754,6753,6999,7000,7041,7040
5630,6713,6714,6755,6754,7000,7001,7042,7041
5631,6714,6715,6756,6755,7001,7002,7043,7042
5632,6715,6716,6757,6756,7002,7003,7044,7043
5633,6716,6717,6758,6757,7003,7004,7045,7044
5634,6717,6718,6759,6758,7004,7005,7046,7045
5635,6718,6719,6760,6759,7005,7006,7047,7046
5636,6719,6720,6761,6760,7006,7007,7048,7047
5637,6720,6721,6762,6761,7007,7008,7049,7048
5638,6721,6722,6763,6762,7008,7009,7050,7049
5639,6722,6723,6764,6763,7009,7010,7051,7050
5640,6723,6724,6765,6764,7010,7011,7052,7051
5641,6725,6726,6767,6766,7012,7013,7054,7053
5642,6726,6727,6768,6767,7013,7014,7055,7054
5643,6727,6728,6769,6768,7014,7015,7056,7055
5644,6728,6729,6770,6769,7015,7016,7057,7056
5645,6729,6730,6771,6770,7016,7017,7058,7057
5646,6730,6731,6772,6771,7017,7018,7059,7058
5647,6731,6732,6773,6772,7018,7019,7060,7059
5648,6732,6733,6774,6773,7019,7020,7061,7060
5649,6733,6734,6775,6774,7020,7021,7062,7061
5650,6734,6735,6776,6775,7021,7022,7063,7062
5651,6735,6736,6777,6776,7022,7023,7064,7063
5652,6736,6737,6778,6777,7023,7024,7065,7064
5653,6737,6738,6779,6778,7024,7025,7066,7065
5654,6738,6739,6780,6779,7025,7026,7067,7066
5655,6739,6740,6781,6780,7026,7027,7068,7067
5656,6740,6741,6782,6781,7027,7028,7069,7068
5657,6741,6742,6783,6782,7028,7029,7070,7069
5658,6742,6743,6784,6783,7029,7030,7071,7070
5659,6743,6744,6785,6784,7030,7031,7072,7071
5660,6744,6745,6786,6785,7031,7032,7073,7072
5661,6745,6746,6787,6786,7032,7033,7074,7073
5662,6746,6747,6788,6787,7033,7034,7075,7074
5663,6747,6748,6789,6788,7034,7035,7076,7075
5664,6748,6749,6790,6789,7035,7036,7077,7076
5665,6749,6750,6791,6790,7036,7037,7078,7077
5666,6750,6751,6792,6791,7037,7038,7079,7078
5667,6751,6752,6793,6792,7038,7039,7080,7079
5668,6752,6753,6794,6793,7039,7040,7081,7080
5669,6753,6754,6795,6794,7040,7041,7082,7081
5670,6754,6755,6796,6795,7041,7042,7083,7082
5671,6755,6756,6797,6796,7042,7043,7084,7083
5672,6756,6757,6798,6797,7043,7044,7085,7084
5673,6757,6758,6799,6798,7044,7045,7086,7085
5674,6758,6759,6800,6799,7045,7046,7087,7086
5675,6759,6760,6801,6800,7046,7047,7088,7087
5676,6760,6761,6802,6801,7047,7048,7089,7088
5677,6761,6762,6803,6802,7048,7049,7090,7089
5678,6762,6763,6804,6803,7049,7050,7091,7090
5679,6763,6764,6805,6804,7050,7051,7092,7091
5680,6764,6765,6806,6805,7051,7052,7093,7092
5681,6766,6767,6808,6807,7053,7054,7095,7094
5682,6767,6768,6809,6808,7054,7055,7096,7095
5683,6768,6769,6810,6809,7055,7056,7097,7096
5684,6769,6770,6811,6810,7056,7057,7098,7097
5685,6770,6771,6812,6811,7057,7058,7099,7098
5686,6771,6772,6813,6812,7058,7059,7100,7099
5687,6772,6773,6814,6813,7059,7060,7101,7100
5688,6773,6774,6815,6814,7060,7061,7102,7101
5689,6774,6775,6816,6815,7061,7062,7103,7102
5690,6775,6776,6817,6816,7062,7063,7104,7103
5691,6776,6777,6818,6817,7063,7064,7105,7104
5692,6777,6778,6819,6818,7064,7065,7106,7105
5693,6778,6779,6820,6819,7065,7066,7107,7106
5694,6779,6780,6821,6820,7066,7067,7108,7107
5695,6780,6781,6822,6821,7067,7068,7109,7108
5696,6781,6782,6823,6822,7068,7069,7110,7109
5697,6782,6783,6824,6823,7069,7070,7111,7110
5698,6783,6784,6825,6824,7070,7071,7112,7111
5699,6784,6785,6826,6825,7071,7072,7113,7112
5700,6785,6786,6827,6826,7072,7073,7114,7113
5701,6786,6787,6828,6827,7073,7074,7115,7114
5702,6787,6788,6829,6828,7074,7075,7116,7115
5703,6788,6789,6830,6829,7075,7076,7117,7116
5704,6789,6790,6831,6830,7076,7077,7118,7117
5705,6790,6791,6832,6831,7077,7078,7119,7118
5706,6791,6792,6833,6832,7078,7079,7120,7119
5707,6792,6793,6834,6833,7079,7080,7121,7120
5708,6793,6794,6835,6834,7080,7081,7122,7121
5709,6794,6795,6836,6835,7081,7082,7123,7122
5710,6795,6796,6837,6836,7082,7083,7124,7123
5711,6796,6797,6838,6837,7083,7084,7125,7124
5712,6797,6798,6839,6838,7084,7085,7126,7125
5713,6798,6799,6840,6839,7085,7086,7127,7126
5714,6799,6800,6841,6840,7086,7087,7128,7127
5715,6800,6801,6842,6841,7087,7088,7129,7128
5716,6801,6802,6843,6842,7088,7089,7130,7129
5717,6802,6803,6844,6843,7089,7090,7131,7130
5718,6803,6804,6845,6844,7090,7091,7132,7131
5719,6804,6805,6846,6845,7091,7092,7133,7132
5720,6805,6806,6847,6846,7092,7093,7134,7133
5721,6807,6808,6849,6848,7094,7095,7136,7135
5722,6808,6809,6850,6849,7095,7096,7137,7136
5723,6809,6810,6851,6850,7096,7097,7138,7137
5724,6810,6811,6852,6851,7097,7098,7139,7138
5725,6811,6812,6853,6852,7098,7099,7140,7139
5726,6812,6813,6854,6853,7099,7100,7141,7140
5727,6813,6814,6855,6854,7100,7101,7142,7141
5728,6814,6815,6856,6855,7101,7102,7143,7142
5729,6815,6816,6857,6856,7102,7103,7144,7143
5730,6816,6817,6858,6857,7103,7104,7145,7144
5731,6817,6818,6859,6858,7104,7105,7146,7145
5732,6818,6819,6860,6859,7105,7106,7147,7146
5733,6819,6820,6861,6860,7106,7107,7148,7147
5734,6820,6821,6862,6861,7107,7108,7149,7148
5735,6821,6822,6863,6862,7108,7109,7150,7149
5736,6822,6823,6864,6863,7109,7110,7151,7150
5737,6823,6824,6865,6864,7110,7111,7152,7151
5738,6824,6825,6866,6865,7111,7112,7153,7152
5739,6825,6826,6867,6866,7112,7113,7154,7153
5740,6826,6827,6868,6867,7113,7114,7155,7154
5741,6827,6828,6869,6868,7114,7115,7156,7155
5742,6828,6829,6870,6869,7115,7116,7157,7156
5743,6829,6830,6871,6870,7116,7117,7158,7157
5744,6830,6831,6872,6871,7117,7118,7159,7158
5745,6831,6832,6873,6872,7118,7119,7160,7159
5746,6832,6833,6874,6873,7119,7120,7161,7160
5747,6833,6834,6875,6874,7120,7121,7162,7161
5748,6834,6835,6876,6875,7121,7122,7163,7162
5749,6835,6836,6877,6876,7122,7123,7164,7163
5750,6836,6837,6878,6877,7123,7124,7165,7164
5751,6837,6838,6879,6878,7124,7125,7166,7165
5752,6838,6839,6880,6879,7125,7126,7167,7166
5753,6839,6840,6881,6880,7126,7127,7168,7167
5754,6840,6841,6882,6881,7127,7128,7169,7168
5755,6841,6842,6883,6882,7128,7129,7170,7169
5756,6842,6843,6884,6883,7129,7130,7171,7170
5757,6843,6844,6885,6884,7130,7131,7172,7171
5758,6844,6845,6886,6885,7131,7132,7173,7172
5759,6845,6846,6887,6886,7132,7133,7174,7173
5760,6846,6847,6888,6887,7133,7134,7175,7174
5761,6889,6890,6931,6930,7176,7177,7218,7217
5762,6890,6891,6932,6931,7177,7178,7219,7218
5763,6891,6892,6933,6932,7178,7179,7220,7219
5764,6892,6893,6934,6933,7179,7180,7221,7220
5765,6893,6894,6935,6934,7180,7181,7222,7221
5766,6894,6895,6936,6935,7181,7182,7223,7222
5767,6895,6896,6937,6936,7182,7183,7224,7223
5768,6896,6897,6938,6937,7183,7184,7225,7224
5769,6897,6898,6939,6938,7184,7185,7226,7225
5770,6898,6899,6940,6939,7185,7186,7227,7226
5771,6899,6900,6941,6940,7186,7187,7228,7227
5772,6900,6901,6942,6941,7187,7188,7229,7228
5773,6901,6902,6943,6942,7188,7189,7230,7229
5774,6902,6903,6944,6943,7189,7190,7231,7230
5775,6903,6904,6945,6944,7190,7191,7232,7231
5776,6904,6905,6946,6945,7191,7192,7233,7232
5777,6905,6906,6947,6946,7192,7193,7234,7233
5778,6906,6907,6948,6947,7193,7194,7235,7234
5779,6907,6908,6949,6948,7194,7195,7236,7235
5780,6908,6909,6950,6949,7195,7196,7237,7236
5781,6909,6910,6951,6950,7196,7197,7238,7237
5782,6910,6911,6952,6951,7197,7198,7239,7238
5783,6911,6912,6953,6952,7198,7199,7240,7239
5784,6912,6913,6954,6953,7199,7200,7241,7240
5785,6913,6914,6955,6954,7200,7201,7242,7241
5786,6914,6915,6956,6955,7201,7202,7243,7242
5787,6915,6916,6957,6956,7202,7203,7244,7243
5788,6916,6917,6958,6957,7203,7204,7245,7244
5789,6917,6918,6959,6958,7204,7205,7246,7245
5790,6918,6919,6960,6959,7205,7206,7247,7246
5791,6919,6920,6961,6960,7206,7207,7248,7247
5792,6920,6921,6962,6961,7207,7208,7249,7248
5793,6921,6922,6963,6962,7208,7209,7250,7249
5794,6922,6923,6964,6963,7209,7210,7251,7250
5795,6923,6924,6965,6964,7210,7211,7252,7251
5796,6924,6925,6966,6965,7211,7212,7253,7252
5797,6925,6926,6967,6966,7212,7213,7254,7253
5798,6926,6927,6968,6967,7213,7214,7255,7254
5799,6927,6928,6969,6968,7214,7215,7256,7255
5800,6928,6929,6970,6969,7215,7216,7257,7256
5801,6930,6931,6972,6971,7217,7218,7259,7258
5802,6931,6932,6973,6972,7218,7219,7260,7259
5803,6932,6933,6974,6973,7219,7220,7261,7260
5804,6933,6934,6975,6974,7220,7221,7262,7261
5805,6934,6935,6976,6975,7221,7222,7263,7262
5806,6935,6936,6977,6976,7222,7223,7264,7263
5807,6936,6937,6978,6977,7223,7224,7265,7264
5808,6937,6938,6979,6978,7224,7225,7266,7265
5809,6938,6939,6980,6979,7225,7226,7267,7266
5810,6939,6940,6981,6980,7226,7227,7268,7267
5811,6940,6941,6982,6981,7227,7228,7269,7268
5812,6941,6942,6983,6982,7228,7229,7270,7269
5813,6942,6943,6984,6983,7229,7230,7271,7270
5814,6943,6944,6985,6984,7230,7231,7272,7271
5815,6944,6945,6986,6985,7231,7232,7273,7272
5816,6945,6946,6987,6986,7232,7233,7274,7273
5817,6946,6947,6988,6987,7233,7234,7275,7274
5818,6947,6948,6989,6988,7234,7235,7276,7275
5819,6948,6949,6990,6989,7235,7236,7277,7276
5820,6949,6950,6991,6990,7236,7237,7278,7277
5821,6950,6951,6992,6991,7237,7238,7279,7278
5822,6951,6952,6993,6992,7238,7239,7280,7279
5823,6952,6953,6994,6993,7239,7240,7281,7280
5824,6953,6954,6995,6994,7240,7241,7282,7281
5825,6954,6955,6996,6995,7241,7242,7283,7282
5826,6955,6956,6997,6996,7242,7243,7284,7283
5827,6956,6957,6998,6997,7243,7244,7285,7284
5828,6957,6958,6999,6998,7244,7245,7286,7285
5829,6958,6959,7000,6999,7245,7246,7287,7286
5830,6959,6960,7001,7000,7246,7247,7288,7287
5831,6960,6961,7002,7001,7247,7248,7289,7288
5832,6961,6962,7003,7002,7248,7249,7290,7289
5833,6962,6963,7004,7003,7249,7250,7291,7290
5834,6963,6964,7005,7004,7250,7251,7292,7291
5835,6964,6965,7006,7005,7251,7252,7293,7292
5836,6965,6966,7007,7006,7252,7253,7294,7293
5837,6966,6967,7008,7007,7253,7254,7295,7294
5838,6967,6968,7009,7008,7254,7255,7296,7295
5839,6968,6969,7010,7009,7255,7256,7297,7296
5840,6969,6970,7011,7010,7256,7257,7298,7297
5841,6971,6972,7013,7012,7258,7259,7300,7299
5842,6972,6973,7014,7013,7259,7260,7301,7300
5843,6973,6974,7015,7014,7260,7261,7302,7301
5844,6974,6975,7016,7015,7261,7262,7303,7302
5845,6975,6976,7017,7016,7262,7263,7304,7303
5846,6976,6977,7018,7017,7263,7264,7305,7304
5847,6977,6978,7019,7018,7264,7265,7306,7305
5848,6978,6979,7020,7019,7265,7266,7307,7306
5849,6979,6980,7021,7020,7266,7267,7308,7307
5850,6980,6981,7022,7021,7267,7268,7309,7308
5851,6981,6982,7023,7022,7268,7269,7310,7309
5852,6982,6983,7024,7023,7269,7270,7311,7310
5853,6983,6984,7025,7024,7270,7271,7312,7311
5854,6984,6985,7026,7025,7271,7272,7313,7312
5855,6985,6986,7027,7026,7272,7273,7314,7313
5856,6986,6987,7028,7027,7273,7274,7315,7314
5857,6987,6988,7029,7028,7274,7275,7316,7315
5858,6988,6989,7030,7029,7275,7276,7317,7316
5859,6989,6990,7031,7030,7276,7277,7318,7317
5860,6990,6991,7032,7031,7277,7278,7319,7318
5861,6991,6992,7033,7032,7278,7279,7320,7319
5862,6992,6993,7034,7033,7279,7280,7321,7320
5863,6993,6994,7035,7034,7280,7281,7322,7321
5864,6994,6995,7036,7035,7281,7282,7323,7322
5865,6995,6996,7037,7036,7282,7283,7324,7323
5866,6996,6997,7038,7037,7283,7284,7325,7324
5867,6997,6998,7039,7038,7284,7285,7326,7325
5868,6998,6999,7040,7039,7285,7286,7327,7326
5869,6999,7000,7041,7040,7286,7287,7328,7327
5870,7000,7001,7042,7041,7287,7288,7329,7328
5871,7001,7002,7043,7042,7288,7289,7330,7329
5872,7002,7003,7044,7043,7289,7290,7331,7330
5873,7003,7004,7045,7044,7290,7291,7332,7331
5874,7004,7005,7046,7045,7291,7292,7333,7332
5875,7005,7006,7047,7046,7292,7293,7334,7333
5876,7006,7007,7048,7047,7293,7294,7335,7334
5877,7007,7008,7049,7048,7294,7295,7336,7335
5878,7008,7009,7050,7049,7295,7296,7337,7336
5879,7009,7010,7051,7050,7296,7297,7338,7337
5880,7010,7011,7052,7051,7297,7298,7339,7338
5881,7012,7013,7054,7053,7299,7300,7341,7340
5882,7013,7014,7055,7054,7300,7301,7342,7341
5883,7014,7015,7056,7055,7301,7302,7343,7342
5884,7015,7016,7057,7056,7302,7303,7344,7343
5885,7016,7017,7058,7057,7303,7304,7345,7344
5886,7017,7018,7059,7058,7304,7305,7346,7345
5887,7018,7019,7060,7059,7305,7306,7347,7346
5888,7019,7020,7061,7060,7306,7307,7348,7347
5889,7020,7021,7062,7061,7307,7308,7349,7348
5890,7021,7022,7063,7062,7308,7309,7350,7349
5891,7022,7023,7064,7063,7309,7310,7351,7350
5892,7023,7024,7065,7064,7310,7311,7352,7351
5893,7024,7025,7066,7065,7311,7312,7353,7352
5894,7025,7026,7067,7066,7312,7313,7354,7353
5895,7026,7027,7068,7067,7313,7314,7355,7354
5896,7027,7028,7069,7068,7314,7315,7356,7355
5897,7028,7029,7070,7069,7315,7316,7357,7356
5898,7029,7030,7071,7070,7316,7317,7358,7357
5899,7030,7031,7072,7071,7317,7318,7359,7358
5900,7031,7032,7073,7072,7318,7319,7360,7359
5901,7032,7033,7074,7073,7319,7320,7361,7360
5902,7033,7034,7075,7074,7320,7321,7362,7361
5903,7034,7035,7076,7075,7321,7322,7363,7362
5904,7035,7036,7077,7076,7322,7323,7364,7363
5905,7036,7037,7078,7077,7323,7324,7365,7364
5906,7037,7038,7079,7078,7324,7325,7366,7365
5907,7038,7039,7080,7079,7325,7326,7367,7366
5908,7039,7040,7081,7080,7326,7327,7368,7367
5909,7040,7041,7082,7081,7327,7328,7369,7368
5910,7041,7042,7083,7082,7328,7329,7370,7369
5911,7042,7043,7084,7083,7329,7330,7371,7370
5912,7043,7044,7085,7084,7330,7331,7372,7371
5913,7044,7045,7086,7085,7331,7332,7373,7372
5914,7045,7046,7087,7086,7332,7333,7374,7373
5915,7046,7047,7088,7087,7333,7334,7375,7374
5916,7047,7048,7089,7088,7334,7335,7376,7375
5917,7048,7049,7090,7089,7335,7336,7377,7376
5918,7049,7050,7091,7090,7336,7337,7378,7377
5919,7050,7051,7092,7091,7337,7338,7379,7378
5920,7051,7052,7093,7092,7338,7339,7380,7379
5921,7053,7054,7095,7094,7340,7341,7382,7381
5922,7054,7055,7096,7095,7341,7342,7383,7382
5923,7055,7056,7097,7096,7342,7343,7384,7383
5924,7056,7057,7098,7097,7343,7344,7385,7384
5925,7057,7058,7099,7098,7344,7345,7386,7385
5926,7058,7059,7100,7099,7345,7346,7387,7386
5927,7059,7060,7101,7100,7346,7347,7388,7387
5928,7060,7061,7102,7101,7347,7348,7389,7388
5929,7061,7062,7103,7102,7348,7349,7390,7389
5930,7062,7063,7104,7103,7349,7350,7391,7390
5931,7063,7064,7105,7104,7350,7351,7392,7391
5932,7064,7065,7106,7105,7351,7352,7393,7392
5933,7065,7066,7107,7106,7352,7353,7394,7393
5934,7066,7067,7108,7107,7353,7354,7395,7394
5935,7067,7068,7109,7108,7354,7355,7396,7395
5936,7068,7069,7110,7109,7355,7356,7397,7396
5937,7069,7070,7111,7110,7356,7357,7398,7397
5938,7070,7071,7112,7111,7357,7358,7399,7398
5939,7071,7072,7113,7112,7358,7359,7400,7399
5940,7072,7073,7114,7113,7359,7360,7401,7400
5941,7073,7074,7115,7114,7360,7361,7402,7401
5942,7074,7075,7116,7115,7361,7362,7403,7402
5943,7075,7076,7117,7116,7362,7363,7404,7403
5944,7076,7077,7118,7117,7363,7364,7405,7404
5945,7077,7078,7119,7118,7364,7365,7406,7405
5946,7078,7079,7120,7119,7365,7366,7407,7406
5947,7079,7080,7121,7120,7366,7367,7408,7407
5948,7080,7081,7122,7121,7367,7368,7409,7408
5949,7081,7082,7123,7122,7368,7369,7410,7409
5950,7082,7083,7124,7123,7369,7370,7411,7410
5951,7083,7084,7125,7124,7370,7371,7412,7411
5952,7084,7085,7126,7125,7371,7372,7413,7412
5953,7085,7086,7127,7126,7372,7373,7414,7413
5954,7086,7087,7128,7127,7373,7374,7415,7414
5955,7087,7088,7129,7128,7374,7375,7416,7415
5956,7088,7089,7130,7129,7375,7376,7417,7416
5957,7089,7090,7131,7130,7376,7377,7418,7417
5958,7090,7091,7132,7131,7377,7378,7419,7418
5959,7091,7092,7133,7132,7378,7379,7420,7419
5960,7092,7093,7134,7133,7379,7380,7421,7420
5961,7094,7095,7136,7135,7381,7382,7423,7422
5962,7095,7096,7137,7136,7382,7383,7424,7423
5963,7096,7097,7138,7137,7383,7384,7425,7424
5964,7097,7098,7139,7138,7384,7385,7426,7425
5965,7098,7099,7140,7139,7385,7386,7427,7426
5966,7099,7100,7141,7140,7386,7387,7428,7427
5967,7100,7101,7142,7141,7387,7388,7429,7428
5968,7101,7102,7143,7142,7388,7389,7430,7429
5969,7102,7103,7144,7143,7389,7390,7431,7430
5970,7103,7104,7145,7144,7390,7391,7432,7431
5971,7104,7105,7146,7145,7391,7392,7433,7432
5972,7105,7106,7147,7146,7392,7393,7434,7433
5973,7106,7107,7148,7147,7393,7394,7435,7434
5974,7107,7108,7149,7148,7394,7395,7436,7435
5975,7108,7109,7150,7149,7395,7396,7437,7436
5976,7109,7110,7151,7150,7396,7397,7438,7437
5977,7110,7111,7152,7151,7397,7398,7439,7438
5978,7111,7112,7153,7152,7398,7399,7440,7439
5979,7112,7113,7154,7153,7399,7400,7441,7440
5980,7113,7114,7155,7154,7400,7401,7442,7441
5981,7114,7115,7156,7155,7401,7402,7443,7442
5982,7115,7116,7157,7156,7402,7403,7444,7443
5983,7116,7117,7158,7157,7403,7404,7445,7444
5984,7117,7118,7159,7158,7404,7405,7446,7445
5985,7118,7119,7160,7159,7405,7406,7447,7446
5986,7119,7120,7161,7160,7406,7407,7448,7447
5987,7120,7121,7162,7161,7407,7408,7449,7448
5988,7121,7122,7163,7162,7408,7409,7450,7449
5989,7122,7123,7164,7163,7409,7410,7451,7450
5990,7123,7124,7165,7164,7410,7411,7452,7451
5991,7124,7125,7166,7165,7411,7412,7453,7452
5992,7125,7126,7167,7166,7412,7413,7454,7453
5993,7126,7127,7168,7167,7413,7414,7455,7454
5994,7127,7128,7169,7168,7414,7415,7456,7455
5995,7128,7129,7170,7169,7415,7416,7457,7456
5996,7129,7130,7171,7170,7416,7417,7458,7457
5997,7130,7131,7172,7171,7417,7418,7459,7458
5998,7131,7132,7173,7172,7418,7419,7460,7459
5999,7132,7133,7174,7173,7419,7420,7461,7460
6000,7133,7134,7175,7174,7420,7421,7462,7461
6001,7176,7177,7218,7217,7463,7464,7505,7504
6002,7177,7178,7219,7218,7464,7465,7506,7505
6003,7178,7179,7220,7219,7465,7466,7507,7506
6004,7179,7180,7221,7220,7466,7467,7508,7507
6005,7180,7181,7222,7221,7467,7468,7509,7508
6006,7181,7182,7223,7222,7468,7469,7510,7509
6007,7182,7183,7224,7223,7469,7470,7511,7510
6008,7183,7184,7225,7224,7470,7471,7512,7511
6009,7184,7185,7226,7225,7471,7472,7513,7512
6010,7185,7186,7227,7226,7472,7473,7514,7513
6011,7186,7187,7228,7227,7473,7474,7515,7514
6012,7187,7188,7229,7228,7474,7475,7516,7515
6013,7188,7189,7230,7229,7475,7476,7517,7516
6014,7189,7190,7231,7230,7476,7477,7518,7517
6015,7190,7191,7232,7231,7477,7478,7519,7518
6016,7191,7192,7233,7232,7478,7479,7520,7519
6017,7192,7193,7234,7233,7479,7480,7521,7520
6018,7193,7194,7235,7234,7480,7481,7522,7521
6019,7194,7195,7236,7235,7481,7482,7523,7522
6020,7195,7196,7237,7236,7482,7483,7524,7523
6021,7196,7197,7238,7237,7483,7484,7525,7524
6022,7197,7198,7239,7238,7484,7485,7526,7525
6023,7198,7199,7240,7239,7485,7486,7527,7526
6024,7199,7200,7241,7240,7486,7487,7528,7527
6025,7200,7201,7242,7241,7487,7488,7529,7528
6026,7201,7202,7243,7242,7488,7489,7530,7529
6027,7202,7203,7244,7243,7489,7490,7531,7530
6028,7203,7204,7245,7244,7490,7491,7532,7531
6029,7204,7205,7246,7245,7491,7492,7533,7532
6030,7205,7206,7247,7246,7492,7493,7534,7533
6031,7206,7207,7248,7247,7493,7494,7535,7534
6032,7207,7208,7249,7248,7494,7495,7536,7535
6033,7208,7209,7250,7249,7495,7496,7537,7536
6034,7209,7210,7251,7250,7496,7497,7538,7537
6035,7210,7211,7252,7251,7497,7498,7539,7538
6036,7211,7212,7253,7252,7498,7499,7540,7539
6037,7212,7213,7254,7253,7499,7500,7541,7540
6038,7213,7214,7255,7254,7500,7501,7542,7541
6039,7214,7215,7256,7255,7501,7502,7543,7542
6040,7215,7216,7257,7256,7502,7503,7544,7543
6041,7217,7218,7259,7258,7504,7505,7546,7545
6042,7218,7219,7260,7259,7505,7506,7547,7546
6043,7219,7220,7261,7260,7506,7507,7548,7547
6044,7220,7221,7262,7261,7507,7508,7549,7548
6045,7221,7222,7263,7262,7508,7509,7550,7549
6046,7222,7223,7264,7263,7509,7510,7551,7550
6047,7223,7224,7265,7264,7510,7511,7552,7551
6048,7224,7225,7266,7265,7511,7512,7553,7552
6049,7225,7226,7267,7266,7512,7513,7554,7553
6050,7226,7227,7268,7267,7513,7514,7555,7554
6051,7227,7228,7269,7268,7514,7515,7556,7555
6052,7228,7229,7270,7269,7515,7516,7557,7556
6053,7229,7230,7271,7270,7516,7517,7558,7557
6054,7230,7231,7272,7271,7517,7518,7559,7558
6055,7231,7232,7273,7272,7518,7519,7560,7559
6056,7232,7233,7274,7273,7519,7520,7561,7560
6057,7233,7234,7275,7274,7520,7521,7562,7561
6058,7234,7235,7276,7275,7521,7522,7563,7562
6059,7235,7236,7277,7276,7522,7523,7564,7563
6060,7236,7237,7278,7277,7523,7524,7565,7564
6061,7237,7238,7279,7278,7524,7525,7566,7565
6062,7238,7239,7280,7279,7525,7526,7567,7566
6063,7239,7240,7281,7280,7526,7527,7568,7567
6064,7240,7241,7282,7281,7527,7528,7569,7568
6065,7241,7242,7283,7282,7528,7529,7570,7569
6066,7242,7243,7284,7283,7529,7530,7571,7570
6067,7243,7244,7285,7284,7530,7531,7572,7571
6068,7244,7245,7286,7285,7531,7532,7573,7572
6069,7245,7246,7287,7286,7532,7533,7574,7573
6070,7246,7247,7288,7287,7533,7534,7575,7574
6071,7247,7248,7289,7288,7534,7535,7576,7575
6072,7248,7249,7290,7289,7535,7536,7577,7576
6073,7249,7250,7291,7290,7536,7537,7578,7577
6074,7250,7251,7292,7291,7537,7538,7579,7578
6075,7251,7252,7293,7292,7538,7539,7580,7579
6076,7252,7253,7294,7293,7539,7540,7581,7580
6077,7253,7254,7295,7294,7540,7541,7582,7581
6078,7254,7255,7296,7295,7541,7542,7583,7582
6079,7255,7256,7297,7296,7542,7543,7584,7583
6080,7256,7257,7298,7297,7543,7544,7585,7584
6081,7258,7259,7300,7299,7545,7546,7587,7586
6082,7259,7260,7301,7300,7546,7547,7588,7587
6083,7260,7261,7302,7301,7547,7548,7589,7588
6084,7261,7262,7303,7302,7548,7549,7590,7589
6085,7262,7263,7304,7303,7549,7550,7591,7590
6086,7263,7264,7305,7304,7550,7551,7592,7591
6087,7264,7265,7306,7305,7551,7552,7593,7592
6088,7265,7266,7307,7306,7552,7553,7594,7593
6089,7266,7267,7308,7307,7553,7554,7595,7594
6090,7267,7268,7309,7308,7554,7555,7596,7595
6091,7268,7269,7310,7309,7555,7556,7597,7596
6092,7269,7270,7311,7310,7556,7557,7598,7597
6093,7270,7271,7312,7311,7557,7558,7599,7598
6094,7271,7272,7313,7312,7558,7559,7600,7599
6095,7272,7273,7314,7313,7559,7560,7601,7600
6096,7273,7274,7315,7314,7560,7561,7602,7601
6097,7274,7275,7316,7315,7561,7562,7603,7602
6098,7275,7276,7317,7316,7562,7563,7604,7603
6099,7276,7277,7318,7317,7563,7564,7605,7604
6100,7277,7278,7319,7318,7564,7565,7606,7605
6101,7278,7279,7320,7319,7565,7566,7607,7606
6102,7279,7280,7321,7320,7566,7567,7608,7607
6103,7280,7281,7322,7321,7567,7568,7609,7608
6104,7281,7282,7323,7322,7568,7569,7610,7609
6105,7282,7283,7324,7323,7569,7570,7611,7610
6106,7283,7284,7325,7324,7570,7571,7612,7611
6107,7284,7285,7326,7325,7571,7572,7613,7612
6108,7285,7286,7327,7326,7572,7573,7614,7613
6109,7286,7287,7328,7327,7573,7574,7615,7614
6110,7287,7288,7329,7328,7574,7575,7616,7615
6111,7288,7289,7330,7329,7575,7576,7617,7616
6112,7289,7290,7331,7330,7576,7577,7618,7617
6113,7290,7291,7332,7331,7577,7578,7619,7618
6114,7291,7292,7333,7332,7578,7579,7620,7619
6115,7292,7293,7334,7333,7579,7580,7621,7620
6116,7293,7294,7335,7334,7580,7581,7622,7621
6117,7294,7295,7336,7335,7581,7582,7623,7622
6118,7295,7296,7337,7336,7582,7583,7624,7623
6119,7296,7297,7338,7337,7583,7584,7625,7624
6120,7297,7298,7339,7338,7584,7585,7626,7625
6121,7299,7300,7341,7340,7586,7587,7628,7627
6122,7300,7301,7342,7341,7587,7588,7629,7628
6123,7301,7302,7343,7342,7588,7589,7630,7629
6124,7302,7303,7344,7343,7589,7590,7631,7630
6125,7303,7304,7345,7344,7590,7591,7632,7631
6126,7304,7305,7346,7345,7591,7592,7633,7632
6127,7305,7306,7347,7346,7592,7593,7634,7633
6128,7306,7307,7348,7347,7593,7594,7635,7634
6129,7307,7308,7349,7348,7594,7595,7636,7635
6130,7308,7309,7350,7349,7595,7596,7637,7636
6131,7309,7310,7351,7350,7596,7597,7638,7637
6132,7310,7311,7352,7351,7597,7598,7639,7638
6133,7311,7312,7353,7352,7598,7599,7640,7639
6134,7312,7313,7354,7353,7599,7600,7641,7640
6135,7313,7314,7355,7354,7600,7601,7642,7641
6136,7314,7315,7356,7355,7601,7602,7643,7642
6137,7315,7316,7357,7356,7602,7603,7644,7643
6138,7316,7317,7358,7357,7603,7604,7645,7644
6139,7317,7318,7359,7358,7604,7605,7646,7645
6140,7318,7319,7360,7359,7605,7606,7647,7646
6141,7319,7320,7361,7360,7606,7607,7648,7647
6142,7320,7321,7362,7361,7607,7608,7649,7648
6143,7321,7322,7363,7362,7608,7609,7650,7649
6144,7322,7323,7364,7363,7609,7610,7651,7650
6145,7323,7324,7365,7364,7610,7611,7652,7651
6146,7324,7325,7366,7365,7611,7612,7653,7652
6147,7325,7326,7367,7366,7612,7613,7654,7653
6148,7326,7327,7368,7367,7613,7614,7655,7654
6149,7327,7328,7369,7368,7614,7615,7656,7655
6150,7328,7329,7370,7369,7615,7616,7657,7656
6151,7329,7330,7371,7370,7616,7617,7658,7657
6152,7330,7331,7372,7371,7617,7618,7659,7658
6153,7331,7332,7373,7372,7618,7619,7660,7659
6154,7332,7333,7374,7373,7619,7620,7661,7660
6155,7333,7334,7375,7374,7620,7621,7662,7661
6156,7334,7335,7376,7375,7621,7622,7663,7662
6157,7335,7336,7377,7376,7622,7623,7664,7663
6158,7336,7337,7378,7377,7623,7624,7665,7664
6159,7337,7338,7379,7378,7624,7625,7666,7665
6160,7338,7339,7380,7379,7625,7626,7667,7666
6161,7340,7341,7382,7381,7627,7628,7669,7668
6162,7341,7342,7383,7382,7628,7629,7670,7669
6163,7342,7343,7384,7383,7629,7630,7671,7670
6164,7343,7344,7385,7384,7630,7631,7672,7671
6165,7344,7345,7386,7385,7631,7632,7673,7672
6166,7345,7346,7387,7386,7632,7633,7674,7673
6167,7346,7347,7388,7387,7633,7634,7675,7674
6168,7347,7348,7389,7388,7634,7635,7676,7675
6169,7348,7349,7390,7389,7635,7636,7677,7676
6170,7349,7350,7391,7390,7636,7637,7678,7677
6171,7350,7351,7392,7391,7637,7638,7679,7678
6172,7351,7352,7393,7392,7638,7639,7680,7679
6173,7352,7353,7394,7393,7639,7640,7681,7680
6174,7353,7354,7395,7394,7640,7641,7682,7681
6175,7354,7355,7396,7395,7641,7642,7683,7682
6176,7355,7356,7397,7396,7642,7643,7684,7683
6177,7356,7357,7398,7397,7643,7644,7685,7684
6178,7357,7358,7399,7398,7644,7645,7686,7685
6179,7358,7359,7400,7399,7645,7646,7687,7686
6180,7359,7360,7401,7400,7646,7647,7688,7687
6181,7360,7361,7402,7401,7647,7648,7689,7688
6182,7361,7362,7403,7402,7648,7649,7690,7689
6183,7362,7363,7404,7403,7649,7650,7691,7690
6184,7363,7364,7405,7404,7650,7651,7692,7691
6185,7364,7365,7406,7405,7651,7652,7693,7692
6186,7365,7366,7407,7406,7652,7653,7694,7693
6187,7366,7367,7408,7407,7653,7654,7695,7694
6188,7367,7368,7409,7408,7654,7655,7696,7695
6189,7368,7369,7410,7409,7655,7656,7697,7696
6190,7369,7370,7411,7410,7656,7657,7698,7697
6191,7370,7371,7412,7411,7657,7658,7699,7698
6192,7371,7372,7413,7412,7658,7659,7700,7699
6193,7372,7373,7414,7413,7659,7660,7701,7700
6194,7373,7374,7415,7414,7660,7661,7702,7701
6195,7374,7375,7416,7415,7661,7662,7703,7702
6196,7375,7376,7417,7416,7662,7663,7704,7703
6197,7376,7377,7418,7417,7663,7664,7705,7704
6198,7377,7378,7419,7418,7664,7665,7706,7705
6199,7378,7379,7420,7419,7665,7666,7707,7706
6200,7379,7380,7421,7420,7666,7667,7708,7707
6201,7381,7382,7423,7422,7668,7669,7710,7709
6202,7382,7383,7424,7423,7669,7670,7711,7710
6203,7383,7384,7425,7424,7670,7671,7712,7711
6204,7384,7385,7426,7425,7671,7672,7713,7712
6205,7385,7386,7427,7426,7672,7673,7714,7713
6206,7386,7387,7428,7427,7673,7674,7715,7714
6207,7387,7388,7429,7428,7674,7675,7716,7715
6208,7388,7389,7430,7429,7675,7676,7717,7716
6209,7389,7390,7431,7430,7676,7677,7718,7717
6210,7390,7391,7432,7431,7677,7678,7719,7718
6211,7391,7392,7433,7432,7678,7679,7720,7719
6212,7392,7393,7434,7433,7679,7680,7721,7720
6213,7393,7394,7435,7434,7680,7681,7722,7721
6214,7394,7395,7436,7435,7681,7682,7723,7722
6215,7395,7396,7437,7436,7682,7683,7724,7723
6216,7396,7397,7438,7437,7683,7684,7725,7724
6217,7397,7398,7439,7438,7684,7685,7726,7725
6218,7398,7399,7440,7439,7685,7686,7727,7726
6219,7399,7400,7441,7440,7686,7687,7728,7727
6220,7400,7401,7442,7441,7687,7688,7729,7728
6221,7401,7402,7443,7442,7688,7689,7730,7729
6222,7402,7403,7444,7443,7689,7690,7731,7730
6223,7403,7404,7445,7444,7690,7691,7732,7731
6224,7404,7405,7446,7445,7691,7692,7733,7732
6225,7405,7406,7447,7446,7692,7693,7734,7733
6226,7406,7407,7448,7447,7693,7694,7735,7734
6227,7407,7408,7449,7448,7694,7695,7736,7735
6228,7408,7409,7450,7449,7695,7696,7737,7736
6229,7409,7410,7451,7450,7696,7697,7738,7737
6230,7410,7411,7452,7451,7697,7698,7739,7738
6231,7411,7412,7453,7452,7698,7699,7740,7739
6232,7412,7413,7454,7453,7699,7700,7741,7740
6233,7413,7414,7455,7454,7700,7701,7742,7741
6234,7414,7415,7456,7455,7701,7702,7743,7742
6235,7415,7416,7457,7456,7702,7703,7744,7743
6236,7416,7417,7458,7457,7703,7704,7745,7744
6237,7417,7418,7459,7458,7704,7705,7746,7745
6238,7418,7419,7460,7459,7705,7706,7747,7746
6239,7419,7420,7461,7460,7706,7707,7748,7747
6240,7420,7421,7462,7461,7707,7708,7749,7748
6241,7463,7464,7505,7504,7750,7751,7792,7791
6242,7464,7465,7506,7505,7751,7752,7793,7792
6243,7465,7466,7507,7506,7752,7753,7794,7793
6244,7466,7467,7508,7507,7753,7754,7795,7794
6245,7467,7468,7509,7508,7754,7755,7796,7795
6246,7468,7469,7510,7509,7755,7756,7797,7796
6247,7469,7470,7511,7510,7756,7757,7798,7797
6248,7470,7471,7512,7511,7757,7758,7799,7798
6249,7471,7472,7513,7512,7758,7759,7800,7799
6250,7472,7473,7514,7513,7759,7760,7801,7800
6251,7473,7474,7515,7514,7760,7761,7802,7801
6252,7474,7475,7516,7515,7761,7762,7803,7802
6253,7475,7476,7517,7516,7762,7763,7804,7803
6254,7476,7477,7518,7517,7763,7764,7805,7804
6255,7477,7478,7519,7518,7764,7765,7806,7805
6256,7478,7479,7520,7519,7765,7766,7807,7806
6257,7479,7480,7521,7520,7766,7767,7808,7807
6258,7480,7481,7522,7521,7767,7768,7809,7808
6259,7481,7482,7523,7522,7768,7769,7810,7809
6260,7482,7483,7524,7523,7769,7770,7811,7810
6261,7483,7484,7525,7524,7770,7771,7812,7811
6262,7484,7485,7526,7525,7771,7772,7813,7812
6263,7485,7486,7527,7526,7772,7773,7814,7813
6264,7486,7487,7528,7527,7773,7774,7815,7814
6265,7487,7488,7529,7528,7774,7775,7816,7815
6266,7488,7489,7530,7529,7775,7776,7817,7816
6267,7489,7490,7531,7530,7776,7777,7818,7817
6268,7490,7491,7532,7531,7777,7778,7819,7818
6269,7491,7492,7533,7532,7778,7779,7820,7819
6270,7492,7493,7534,7533,7779,7780,7821,7820
6271,7493,7494,7535,7534,7780,7781,7822,7821
6272,7494,7495,7536,7535,7781,7782,7823,7822
6273,7495,7496,7537,7536,7782,7783,7824,7823
6274,7496,7497,7538,7537,7783,7784,7825,7824
6275,7497,7498,7539,7538,7784,7785,7826,7825
6276,7498,7499,7540,7539,7785,7786,7827,7826
6277,7499,7500,7541,7540,7786,7787,7828,7827
6278,7500,7501,7542,7541,7787,7788,7829,7828
6279,7501,7502,7543,7542,7788,7789,7830,7829
6280,7502,7503,7544,7543,7789,7790,7831,7830
6281,7504,7505,7546,7545,7791,7792,7833,7832
6282,7505,7506,7547,7546,7792,7793,7834,7833
6283,7506,7507,7548,7547,7793,7794,7835,7834
6284,7507,7508,7549,7548,7794,7795,7836,7835
6285,7508,7509,7550,7549,7795,7796,7837,7836
6286,7509,7510,7551,7550,7796,7797,7838,7837
6287,7510,7511,7552,7551,7797,7798,7839,7838
6288,7511,7512,7553,7552,7798,7799,7840,7839
6289,7512,7513,7554,7553,7799,7800,7841,7840
6290,7513,7514,7555,7554,7800,7801,7842,7841
6291,7514,7515,7556,7555,7801,7802,7843,7842
6292,7515,7516,7557,7556,7802,7803,7844,7843
6293,7516,7517,7558,7557,7803,7804,7845,7844
6294,7517,7518,7559,7558,7804,7805,7846,7845
6295,7518,7519,7560,7559,7805,7806,7847,7846
6296,7519,7520,7561,7560,7806,7807,7848,7847
6297,7520,7521,7562,7561,7807,7808,7849,7848
6298,7521,7522,7563,7562,7808,7809,7850,7849
6299,7522,7523,7564,7563,7809,7810,7851,7850
6300,7523,7524,7565,7564,7810,7811,7852,7851
6301,7524,7525,7566,7565,7811,7812,7853,7852
6302,7525,7526,7567,7566,7812,7813,7854,7853
6303,7526,7527,7568,7567,7813,7814,7855,7854
6304,7527,7528,7569,7568,7814,7815,7856,7855
6305,7528,7529,7570,7569,7815,7816,7857,7856
6306,7529,7530,7571,7570,7816,7817,7858,7857
6307,7530,7531,7572,7571,7817,7818,7859,7858
6308,7531,7532,7573,7572,7818,7819,7860,7859
6309,7532,7533,7574,7573,7819,7820,7861,7860
6310,7533,7534,7575,7574,7820,7821,7862,7861
6311,7534,7535,7576,7575,7821,7822,7863,7862
6312,7535,7536,7577,7576,7822,7823,7864,7863
6313,7536,7537,7578,7577,7823,7824,7865,7864
6314,7537,7538,7579,7578,7824,7825,7866,7865
6315,7538,7539,7580,7579,7825,7826,7867,7866
6316,7539,7540,7581,7580,7826,7827,7868,7867
6317,7540,7541,7582,7581,7827,7828,7869,7868
6318,7541,7542,7583,7582,7828,7829,7870,7869
6319,7542,7543,7584,7583,7829,7830,7871,7870
6320,7543,7544,7585,7584,7830,7831,7872,7871
6321,7545,7546,7587,7586,7832,7833,7874,7873
6322,7546,7547,7588,7587,7833,7834,7875,7874
6323,7547,7548,7589,7588,7834,7835,7876,7875
6324,7548,7549,7590,7589,7835,7836,7877,7876
6325,7549,7550,7591,7590,7836,7837,7878,7877
6326,7550,7551,7592,7591,7837,7838,7879,7878
6327,7551,7552,7593,7592,7838,7839,7880,7879
6328,7552,7553,7594,7593,7839,7840,7881,7880
6329,7553,7554,7595,7594,7840,7841,7882,7881
6330,7554,7555,7596,7595,7841,7842,7883,7882
6331,7555,7556,7597,7596,7842,7843,7884,7883
6332,7556,7557,7598,7597,7843,7844,7885,7884
6333,7557,7558,7599,7598,7844,7845,7886,7885
6334,7558,7559,7600,7599,7845,7846,7887,7886
6335,7559,7560,7601,7600,7846,7847,7888,7887
6336,7560,7561,7602,7601,7847,7848,7889,7888
6337,7561,7562,7603,7602,7848,7849,7890,7889
6338,7562,7563,7604,7603,7849,7850,7891,7890
6339,7563,7564,7605,7604,7850,7851,7892,7891
6340,7564,7565,7606,7605,7851,7852,7893,7892
6341,7565,7566,7607,7606,7852,7853,7894,7893
6342,7566,7567,7608,7607,7853,7854,7895,7894
6343,7567,7568,7609,7608,7854,7855,7896,7895
6344,7568,7569,7610,7609,7855,7856,7897,7896
6345,7569,7570,7611,7610,7856,7857,7898,7897
6346,7570,7571,7612,7611,7857,7858,7899,7898
6347,7571,7572,7613,7612,7858,7859,7900,7899
6348,7572,7573,7614,7613,7859,7860,7901,7900
6349,7573,7574,7615,7614,7860,7861,7902,7901
6350,7574,7575,7616,7615,7861,7862,7903,7902
6351,7575,7576,7617,7616,7862,7863,7904,7903
6352,7576,7577,7618,7617,7863,7864,7905,7904
6353,7577,7578,7619,7618,7864,7865,7906,7905
6354,7578,7579,7620,7619,7865,7866,7907,7906
6355,7579,7580,7621,7620,7866,7867,7908,7907
6356,7580,7581,7622,7621,7867,7868,7909,7908
6357,7581,7582,7623,7622,7868,7869,7910,7909
6358,7582,7583,7624,7623,7869,7870,7911,7910
6359,7583,7584,7625,7624,7870,7871,7912,7911
6360,7584,7585,7626,7625,7871,7872,7913,7912
6361,7586,7587,7628,7627,7873,7874,7915,7914
6362,7587,7588,7629,7628,7874,7875,7916,7915
6363,7588,7589,7630,7629,7875,7876,7917,7916
6364,7589,7590,7631,7630,7876,7877,7918,7917
6365,7590,7591,7632,7631,7877,7878,7919,7918
6366,7591,7592,7633,7632,7878,7879,7920,7919
6367,7592,7593,7634,7633,7879,7880,7921,7920
6368,7593,7594,7635,7634,7880,7881,7922,7921
6369,7594,7595,7636,7635,7881,7882,7923,7922
6370,7595,7596,7637,7636,7882,7883,7924,7923
6371,7596,7597,7638,7637,7883,7884,7925,7924
6372,7597,7598,7639,7638,7884,7885,7926,7925
6373,7598,7599,7640,7639,7885,7886,7927,7926
6374,7599,7600,7641,7640,7886,7887,7928,7927
6375,7600,7601,7642,7641,7887,7888,7929,7928
6376,7601,7602,7643,7642,7888,7889,7930,7929
6377,7602,7603,7644,7643,7889,7890,7931,7930
6378,7603,7604,7645,7644,7890,7891,7932,7931
6379,7604,7605,7646,7645,7891,7892,7933,7932
6380,7605,7606,7647,7646,7892,7893,7934,7933
6381,7606,7607,7648,7647,7893,7894,7935,7934
6382,7607,7608,7649,7648,7894,7895,7936,7935
6383,7608,7609,7650,7649,7895,7896,7937,7936
6384,7609,7610,7651,7650,7896,7897,7938,7937
6385,7610,7611,7652,7651,7897,7898,7939,7938
6386,7611,7612,7653,7652,7898,7899,7940,7939
6387,7612,7613,7654,7653,7899,7900,7941,7940
6388,7613,7614,7655,7654,7900,7901,7942,7941
6389,7614,7615,7656,7655,7901,7902,7943,7942
6390,7615,7616,7657,7656,7902,7903,7944,7943
6391,7616,7617,7658,7657,7903,7904,7945,7944
6392,7617,7618,7659,7658,7904,7905,7946,7945
6393,7618,7619,7660,7659,7905,7906,7947,7946
6394,7619,7620,7661,7660,7906,7907,7948,7947
6395,7620,7621,7662,7661,7907,7908,7949,7948
6396,7621,7622,7663,7662,7908,7909,7950,7949
6397,7622,7623,7664,7663,7909,7910,7951,7950
6398,7623,7624,7665,7664,7910,7911,7952,7951
6399,7624,7625,7666,7665,7911,7912,7953,7952
6400,7625,7626,7667,7666,7912,7913,7954,7953
6401,7627,7628,7669,7668,7914,7915,7956,7955
6402,7628,7629,7670,7669,7915,7916,7957,7956
6403,7629,7630,7671,7670,7916,7917,7958,7957
6404,7630,7631,7672,7671,7917,7918,7959,7958
6405,7631,7632,7673,7672,7918,7919,7960,7959
6406,7632,7633,7674,7673,7919,7920,7961,7960
6407,7633,7634,7675,7674,7920,7921,7962,7961
6408,7634,7635,7676,7675,7921,7922,7963,7962
6409,7635,7636,7677,7676,7922,7923,7964,7963
6410,7636,7637,7678,7677,7923,7924,7965,7964
6411,7637,7638,7679,7678,7924,7925,7966,7965
6412,7638,7639,7680,7679,7925,7926,7967,7966
6413,7639,7640,7681,7680,7926,7927,7968,7967
6414,7640,7641,7682,7681,7927,7928,7969,7968
6415,7641,7642,7683,7682,7928,7929,7970,7969
6416,7642,7643,7684,7683,7929,7930,7971,7970
6417,7643,7644,7685,7684,7930,7931,7972,7971
6418,7644,7645,7686,7685,7931,7932,7973,7972
6419,7645,7646,7687,7686,7932,7933,7974,7973
6420,7646,7647,7688,7687,7933,7934,7975,7974
6421,7647,7648,7689,7688,7934,7935,7976,7975
6422,7648,7649,7690,7689,7935,7936,7977,7976
6423,7649,7650,7691,7690,7936,7937,7978,7977
6424,7650,7651,7692,7691,7937,7938,7979,7978
6425,7651,7652,7693,7692,7938,7939,7980,7979
6426,7652,7653,7694,7693,7939,7940,7981,7980
6427,7653,7654,7695,7694,7940,7941,7982,7981
6428,7654,7655,7696,7695,7941,7942,7983,7982
6429,7655,7656,7697,7696,7942,7943,7984,7983
6430,7656,7657,7698,7697,7943,7944,7985,7984
6431,7657,7658,7699,7698,7944,7945,7986,7985
6432,7658,7659,7700,7699,7945,7946,7987,7986
6433,7659,7660,7701,7700,7946,7947,7988,7987
6434,7660,7661,7702,7701,7947,7948,7989,7988
6435,7661,7662,7703,7702,7948,7949,7990,7989
6436,7662,7663,7704,7703,7949,7950,7991,7990
6437,7663,7664,7705,7704,7950,7951,7992,7991
6438,7664,7665,7706,7705,7951,7952,7993,7992
6439,7665,7666,7707,7706,7952,7953,7994,7993
6440,7666,7667,7708,7707,7953,7954,7995,7994
6441,7668,7669,7710,7709,7955,7956,7997,7996
6442,7669,7670,7711,7710,7956,7957,7998,7997
6443,7670,7671,7712,7711,7957,7958,7999,7998
6444,7671,7672,7713,7712,7958,7959,8000,7999
6445,7672,7673,7714,7713,7959,7960,8001,8000
6446,7673,7674,7715,7714,7960,7961,8002,8001
6447,7674,7675,7716,7715,7961,7962,8003,8002
6448,7675,7676,7717,7716,7962,7963,8004,8003
6449,7676,7677,7718,7717,7963,7964,8005,8004
6450,7677,7678,7719,7718,7964,7965,8006,8005
6451,7678,7679,7720,7719,7965,7966,8007,8006
6452,7679,7680,7721,7720,7966,7967,8008,8007
6453,7680,7681,7722,7721,7967,7968,8009,8008
6454,7681,7682,7723,7722,7968,7969,8010,8009
6455,7682,7683,7724,7723,7969,7970,8011,8010
6456,7683,7684,7725,7724,7970,7971,8012,8011
6457,7684,7685,7726,7725,7971,7972,8013,8012
6458,7685,7686,7727,7726,7972,7973,8014,8013
6459,7686,7687,7728,7727,7973,7974,8015,8014
6460,7687,7688,7729,7728,7974,7975,8016,8015
6461,7688,7689,7730,7729,7975,7976,8017,8016
6462,7689,7690,7731,7730,7976,7977,8018,8017
6463,7690,7691,7732,7731,7977,7978,8019,8018
6464,7691,7692,7733,7732,7978,7979,8020,8019
6465,7692,7693,7734,7733,7979,7980,8021,8020
6466,7693,7694,7735,7734,7980,7981,8022,8021
6467,7694,7695,7736,7735,7981,7982,8023,8022
6468,7695,7696,7737,7736,7982,7983,8024,8023
6469,7696,7697,7738,7737,7983,7984,8025,8024
6470,7697,7698,7739,7738,7984,7985,8026,8025
6471,7698,7699,7740,7739,7985,7986,8027,8026
6472,7699,7700,7741,7740,7986,7987,8028,8027
6473,7700,7701,7742,7741,7987,7988,8029,8028
6474,7701,7702,7743,7742,7988,7989,8030,8029
6475,7702,7703,7744,7743,7989,7990,8031,8030
6476,7703,7704,7745,7744,7990,7991,8032,8031
6477,7704,7705,7746,7745,7991,7992,8033,8032
6478,7705,7706,7747,7746,7992,7993,8034,8033
6479,7706,7707,7748,7747,7993,7994,8035,8034
6480,7707,7708,7749,7748,7994,7995,8036,8035
6481,7750,7751,7792,7791,8037,8038,8079,8078
6482,7751,7752,7793,7792,8038,8039,8080,8079
6483,7752,7753,7794,7793,8039,8040,8081,8080
6484,7753,7754,7795,7794,8040,8041,8082,8081
6485,7754,7755,7796,7795,8041,8042,8083,8082
6486,7755,7756,7797,7796,8042,8043,8084,8083
6487,7756,7757,7798,7797,8043,8044,8085,8084
6488,7757,7758,7799,7798,8044,8045,8086,8085
6489,7758,7759,7800,7799,8045,8046,8087,8086
6490,7759,7760,7801,7800,8046,8047,8088,8087
6491,7760,7761,7802,7801,8047,8048,8089,8088
6492,7761,7762,7803,7802,8048,8049,8090,8089
6493,7762,7763,7804,7803,8049,8050,8091,8090
6494,7763,7764,7805,7804,8050,8051,8092,8091
6495,7764,7765,7806,7805,8051,8052,8093,8092
6496,7765,7766,7807,7806,8052,8053,8094,8093
6497,7766,7767,7808,7807,8053,8054,8095,8094
6498,7767,7768,7809,7808,8054,8055,8096,8095
6499,7768,7769,7810,7809,8055,8056,8097,8096
6500,7769,7770,7811,7810,8056,8057,8098,8097
6501,7770,7771,7812,7811,8057,8058,8099,8098
6502,7771,7772,7813,7812,8058,8059,8100,8099
6503,7772,7773,7814,7813,8059,8060,8101,8100
6504,7773,7774,7815,7814,8060,8061,8102,8101
6505,7774,7775,7816,7815,8061,8062,8103,8102
6506,7775,7776,7817,7816,8062,8063,8104,8103
6507,7776,7777,7818,7817,8063,8064,8105,8104
6508,7777,7778,7819,7818,8064,8065,8106,8105
6509,7778,7779,7820,7819,8065,8066,8107,8106
6510,7779,7780,7821,7820,8066,8067,8108,8107
6511,7780,7781,7822,7821,8067,8068,8109,8108
6512,7781,7782,7823,7822,8068,8069,8110,8109
6513,7782,7783,7824,7823,8069,8070,8111,8110
6514,7783,7784,7825,7824,8070,8071,8112,8111
6515,7784,7785,7826,7825,8071,8072,8113,8112
6516,7785,7786,7827,7826,8072,8073,8114,8113
6517,7786,7787,7828,7827,8073,8074,8115,8114
6518,7787,7788,7829,7828,8074,8075,8116,8115
6519,7788,7789,7830,7829,8075,8076,8117,8116
6520,7789,7790,7831,7830,8076,8077,8118,8117
6521,7791,7792,7833,7832,8078,8079,8120,8119
6522,7792,7793,7834,7833,8079,8080,8121,8120
6523,7793,7794,7835,7834,8080,8081,8122,8121
6524,7794,7795,7836,7835,8081,8082,8123,8122
6525,7795,7796,7837,7836,8082,8083,8124,8123
6526,7796,7797,7838,7837,8083,8084,8125,8124
6527,7797,7798,7839,7838,8084,8085,8126,8125
6528,7798,7799,7840,7839,8085,8086,8127,8126
6529,7799,7800,7841,7840,8086,8087,8128,8127
6530,7800,7801,7842,7841,8087,8088,8129,8128
6531,7801,7802,7843,7842,8088,8089,8130,8129
6532,7802,7803,7844,7843,8089,8090,8131,8130
6533,7803,7804,7845,7844,8090,8091,8132,8131
6534,7804,7805,7846,7845,8091,8092,8133,8132
6535,7805,7806,7847,7846,8092,8093,8134,8133
6536,7806,7807,7848,7847,8093,8094,8135,8134
6537,7807,7808,7849,7848,8094,8095,8136,8135
6538,7808,7809,7850,7849,8095,8096,8137,8136
6539,7809,7810,7851,7850,8096,8097,8138,8137
6540,7810,7811,7852,7851,8097,8098,8139,8138
6541,7811,7812,7853,7852,8098,8099,8140,8139
6542,7812,7813,7854,7853,8099,8100,8141,8140
6543,7813,7814,7855,7854,8100,8101,8142,8141
6544,7814,7815,7856,7855,8101,8102,8143,8142
6545,7815,7816,7857,7856,8102,8103,8144,8143
6546,7816,7817,7858,7857,8103,8104,8145,8144
6547,7817,7818,7859,7858,8104,8105,8146,8145
6548,7818,7819,7860,7859,8105,8106,8147,8146
6549,7819,7820,7861,7860,8106,8107,8148,8147
6550,7820,7821,7862,7861,8107,8108,8149,8148
6551,7821,7822,7863,7862,8108,8109,8150,8149
6552,7822,7823,7864,7863,8109,8110,8151,8150
6553,7823,7824,7865,7864,8110,8111,8152,8151
6554,7824,7825,7866,7865,8111,8112,8153,8152
6555,7825,7826,7867,7866,8112,8113,8154,8153
6556,7826,7827,7868,7867,8113,8114,8155,8154
6557,7827,7828,7869,7868,8114,8115,8156,8155
6558,7828,7829,7870,7869,8115,8116,8157,8156
6559,7829,7830,7871,7870,8116,8117,8158,8157
6560,7830,7831,7872,7871,8117,8118,8159,8158
6561,7832,7833,7874,7873,8119,8120,8161,8160
6562,7833,7834,7875,7874,8120,8121,8162,8161
6563,7834,7835,7876,7875,8121,8122,8163,8162
6564,7835,7836,7877,7876,8122,8123,8164,8163
6565,7836,7837,7878,7877,8123,8124,8165,8164
6566,7837,7838,7879,7878,8124,8125,8166,8165
6567,7838,7839,7880,7879,8125,8126,8167,8166
6568,7839,7840,7881,7880,8126,8127,8168,8167
6569,7840,7841,7882,7881,8127,8128,8169,8168
6570,7841,7842,7883,7882,8128,8129,8170,8169
6571,7842,7843,7884,7883,8129,8130,8171,8170
6572,7843,7844,7885,7884,8130,8131,8172,8171
6573,7844,7845,7886,7885,8131,8132,8173,8172
6574,7845,7846,7887,7886,8132,8133,8174,8173
6575,7846,7847,7888,7887,8133,8134,8175,8174
6576,7847,7848,7889,7888,8134,8135,8176,8175
6577,7848,7849,7890,7889,8135,8136,8177,8176
6578,7849,7850,7891,7890,8136,8137,8178,8177
6579,7850,7851,7892,7891,8137,8138,8179,8178
6580,7851,7852,7893,7892,8138,8139,8180,8179
6581,7852,7853,7894,7893,8139,8140,8181,8180
6582,7853,7854,7895,7894,8140,8141,8182,8181
6583,7854,7855,7896,7895,8141,8142,8183,8182
6584,7855,7856,7897,7896,8142,8143,8184,8183
6585,7856,7857,7898,7897,8143,8144,8185,8184
6586,7857,7858,7899,7898,8144,8145,8186,8185
6587,7858,7859,7900,7899,8145,8146,8187,8186
6588,7859,7860,7901,7900,8146,8147,8188,8187
6589,7860,7861,7902,7901,8147,8148,8189,8188
6590,7861,7862,7903,7902,8148,8149,8190,8189
6591,7862,7863,7904,7903,8149,8150,8191,8190
6592,7863,7864,7905,7904,8150,8151,8192,8191
6593,7864,7865,7906,7905,8151,8152,8193,8192
6594,7865,7866,7907,7906,8152,8153,8194,8193
6595,7866,7867,7908,7907,8153,8154,8195,8194
6596,7867,7868,7909,7908,8154,8155,8196,8195
6597,7868,7869,7910,7909,8155,8156,8197,8196
6598,7869,7870,7911,7910,8156,8157,8198,8197
6599,7870,7871,7912,7911,8157,8158,8199,8198
6600,7871,7872,7913,7912,8158,8159,8200,8199
6601,7873,7874,7915,7914,8160,8161,8202,8201
6602,7874,7875,7916,7915,8161,8162,8203,8202
6603,7875,7876,7917,7916,8162,8163,8204,8203
6604,7876,7877,7918,7917,8163,8164,8205,8204
6605,7877,7878,7919,7918,8164,8165,8206,8205
6606,7878,7879,7920,7919,8165,8166,8207,8206
6607,7879,7880,7921,7920,8166,8167,8208,8207
6608,7880,7881,7922,7921,8167,8168,8209,8208
6609,7881,7882,7923,7922,8168,8169,8210,8209
6610,7882,7883,7924,7923,8169,8170,8211,8210
6611,7883,7884,7925,7924,8170,8171,8212,8211
6612,7884,7885,7926,7925,8171,8172,8213,8212
6613,7885,7886,7927,7926,8172,8173,8214,8213
6614,7886,7887,7928,7927,8173,8174,8215,8214
6615,7887,7888,7929,7928,8174,8175,8216,8215
6616,7888,7889,7930,7929,8175,8176,8217,8216
6617,7889,7890,7931,7930,8176,8177,8218,8217
6618,7890,7891,7932,7931,8177,8178,8219,8218
6619,7891,7892,7933,7932,8178,8179,8220,8219
6620,7892,7893,7934,7933,8179,8180,8221,8220
6621,7893,7894,7935,7934,8180,8181,8222,8221
6622,7894,7895,7936,7935,8181,8182,8223,8222
6623,7895,7896,7937,7936,8182,8183,8224,8223
6624,7896,7897,7938,7937,8183,8184,8225,8224
6625,7897,7898,7939,7938,8184,8185,8226,8225
6626,7898,7899,7940,7939,8185,8186,8227,8226
6627,7899,7900,7941,7940,8186,8187,8228,8227
6628,7900,7901,7942,7941,8187,8188,8229,8228
6629,7901,7902,7943,7942,8188,8189,8230,8229
6630,7902,7903,7944,7943,8189,8190,8231,8230
6631,7903,7904,7945,7944,8190,8191,8232,8231
6632,7904,7905,7946,7945,8191,8192,8233,8232
6633,7905,7906,7947,7946,8192,8193,8234,8233
6634,7906,7907,7948,7947,8193,8194,8235,8234
6635,7907,7908,7949,7948,8194,8195,8236,8235
6636,7908,7909,7950,7949,8195,8196,8237,8236
6637,7909,7910,7951,7950,8196,8197,8238,8237
6638,7910,7911,7952,7951,8197,8198,8239,8238
6639,7911,7912,7953,7952,8198,8199,8240,8239
6640,7912,7913,7954,7953,8199,8200,8241,8240
6641,7914,7915,7956,7955,8201,8202,8243,8242
6642,7915,7916,7957,7956,8202,8203,8244,8243
6643,7916,7917,7958,7957,8203,8204,8245,8244
6644,7917,7918,7959,7958,8204,8205,8246,8245
6645,7918,7919,7960,7959,8205,8206,8247,8246
6646,7919,7920,7961,7960,8206,8207,8248,8247
6647,7920,7921,7962,7961,8207,8208,8249,8248
6648,7921,7922,7963,7962,8208,8209,8250,8249
6649,7922,7923,7964,7963,8209,8210,8251,8250
6650,7923,7924,7965,7964,8210,8211,8252,8251
6651,7924,7925,7966,7965,8211,8212,8253,8252
6652,7925,7926,7967,7966,8212,8213,8254,8253
6653,7926,7927,7968,7967,8213,8214,8255,8254
6654,7927,7928,7969,7968,8214,8215,8256,8255
6655,7928,7929,7970,7969,8215,8216,8257,8256
6656,7929,7930,7971,7970,8216,8217,8258,8257
6657,7930,7931,7972,7971,8217,8218,8259,8258
6658,7931,7932,7973,7972,8218,8219,8260,8259
6659,7932,7933,7974,7973,8219,8220,8261,8260
6660,7933,7934,7975,7974,8220,8221,8262,8261
6661,7934,7935,7976,7975,8221,8222,8263,8262
6662,7935,7936,7977,7976,8222,8223,8264,8263
6663,7936,7937,7978,7977,8223,8224,8265,8264
6664,7937,7938,7979,7978,8224,8225,8266,8265
6665,7938,7939,7980,7979,8225,8226,8267,8266
6666,7939,7940,7981,7980,8226,8227,8268,8267
6667,7940,7941,7982,7981,8227,8228,8269,8268
6668,7941,7942,7983,7982,8228,8229,8270,8269
6669,7942,7943,7984,7983,8229,8230,8271,8270
6670,7943,7944,7985,7984,8230,8231,8272,8271
6671,7944,7945,7986,7985,8231,8232,8273,8272
6672,7945,7946,7987,7986,8232,8233,8274,8273
6673,7946,7947,7988,7987,8233,8234,8275,8274
6674,7947,7948,7989,7988,8234,8235,8276,8275
6675,7948,7949,7990,7989,8235,8236,8277,8276
6676,7949,7950,7991,7990,8236,8237,8278,8277
6677,7950,7951,7992,7991,8237,8238,8279,8278
6678,7951,7952,7993,7992,8238,8239,8280,8279
6679,7952,7953,7994,7993,8239,8240,8281,8280
6680,7953,7954,7995,7994,8240,8241,8282,8281
6681,7955,7956,7997,7996,8242,8243,8284,8283
6682,7956,7957,7998,7997,8243,8244,8285,8284
6683,7957,7958,7999,7998,8244,8245,8286,8285
6684,7958,7959,8000,7999,8245,8246,8287,8286
6685,7959,7960,8001,8000,8246,8247,8288,8287
6686,7960,7961,8002,8001,8247,8248,8289,8288
6687,7961,7962,8003,8002,8248,8249,8290,8289
6688,7962,7963,8004,8003,8249,8250,8291,8290
6689,7963,7964,8005,8004,8250,8251,8292,8291
6690,7964,7965,8006,8005,8251,8252,8293,8292
6691,7965,7966,8007,8006,8252,8253,8294,8293
6692,7966,7967,8008,8007,8253,8254,8295,8294
6693,7967,7968,8009,8008,8254,8255,8296,8295
6694,7968,7969,8010,8009,8255,8256,8297,8296
6695,7969,7970,8011,8010,8256,8257,8298,8297
6696,7970,7971,8012,8011,8257,8258,8299,8298
6697,7971,7972,8013,8012,8258,8259,8300,8299
6698,7972,7973,8014,8013,8259,8260,8301,8300
6699,7973,7974,8015,8014,8260,8261,8302,8301
6700,7974,7975,8016,8015,8261,8262,8303,8302
6701,7975,7976,8017,8016,8262,8263,8304,8303
6702,7976,7977,8018,8017,8263,8264,8305,8304
6703,7977,7978,8019,8018,8264,8265,8306,8305
6704,7978,7979,8020,8019,8265,8266,8307,8306
6705,7979,7980,8021,8020,8266,8267,8308,8307
6706,7980,7981,8022,8021,8267,8268,8309,8308
6707,7981,7982,8023,8022,8268,8269,8310,8309
6708,7982,7983,8024,8023,8269,8270,8311,8310
6709,7983,7984,8025,8024,8270,8271,8312,8311
6710,7984,7985,8026,8025,8271,8272,8313,8312
6711,7985,7986,8027,8026,8272,8273,8314,8313
6712,7986,7987,8028,8027,8273,8274,8315,8314
6713,7987,7988,8029,8028,8274,8275,8316,8315
6714,7988,7989,8030,8029,8275,8276,8317,8316
6715,7989,7990,8031,8030,8276,8277,8318,8317
6716,7990,7991,8032,8031,8277,8278,8319,8318
6717,7991,7992,8033,8032,8278,8279,8320,8319
6718,7992,7993,8034,8033,8279,8280,8321,8320
6719,7993,7994,8035,8034,8280,8281,8322,8321
6720,7994,7995,8036,8035,8281,8282,8323,8322
6721,8037,8038,8079,8078,8324,8325,8366,8365
6722,8038,8039,8080,8079,8325,8326,8367,8366
6723,8039,8040,8081,8080,8326,8327,8368,8367
6724,8040,8041,8082,8081,8327,8328,8369,8368
6725,8041,8042,8083,8082,8328,8329,8370,8369
6726,8042,8043,8084,8083,8329,8330,8371,8370
6727,8043,8044,8085,8084,8330,8331,8372,8371
6728,8044,8045,8086,8085,8331,8332,8373,8372
6729,8045,8046,8087,8086,8332,8333,8374,8373
6730,8046,8047,8088,8087,8333,8334,8375,8374
6731,8047,8048,8089,8088,8334,8335,8376,8375
6732,8048,8049,8090,8089,8335,8336,8377,8376
6733,8049,8050,8091,8090,8336,8337,8378,8377
6734,8050,8051,8092,8091,8337,8338,8379,8378
6735,8051,8052,8093,8092,8338,8339,8380,8379
6736,8052,8053,8094,8093,8339,8340,8381,8380
6737,8053,8054,8095,8094,8340,8341,8382,8381
6738,8054,8055,8096,8095,8341,8342,8383,8382
6739,8055,8056,8097,8096,8342,8343,8384,8383
6740,8056,8057,8098,8097,8343,8344,8385,8384
6741,8057,8058,8099,8098,8344,8345,8386,8385
6742,8058,8059,8100,8099,8345,8346,8387,8386
6743,8059,8060,8101,8100,8346,8347,8388,8387
6744,8060,8061,8102,8101,8347,8348,8389,8388
6745,8061,8062,8103,8102,8348,8349,8390,8389
6746,8062,8063,8104,8103,8349,8350,8391,8390
6747,8063,8064,8105,8104,8350,8351,8392,8391
6748,8064,8065,8106,8105,8351,8352,8393,8392
6749,8065,8066,8107,8106,8352,8353,8394,8393
6750,8066,8067,8108,8107,8353,8354,8395,8394
6751,8067,8068,8109,8108,8354,8355,8396,8395
6752,8068,8069,8110,8109,8355,8356,8397,8396
6753,8069,8070,8111,8110,8356,8357,8398,8397
6754,8070,8071,8112,8111,8357,8358,8399,8398
6755,8071,8072,8113,8112,8358,8359,8400,8399
6756,8072,8073,8114,8113,8359,8360,8401,8400
6757,8073,8074,8115,8114,8360,8361,8402,8401
6758,8074,8075,8116,8115,8361,8362,8403,8402
6759,8075,8076,8117,8116,8362,8363,8404,8403
6760,8076,8077,8118,8117,8363,8364,8405,8404
6761,8078,8079,8120,8119,8365,8366,8407,8406
6762,8079,8080,8121,8120,8366,8367,8408,8407
6763,8080,8081,8122,8121,8367,8368,8409,8408
6764,8081,8082,8123,8122,8368,8369,8410,8409
6765,8082,8083,8124,8123,8369,8370,8411,8410
6766,8083,8084,8125,8124,8370,8371,8412,8411
6767,8084,8085,8126,8125,8371,8372,8413,8412
6768,8085,8086,8127,8126,8372,8373,8414,8413
6769,8086,8087,8128,8127,8373,8374,8415,8414
6770,8087,8088,8129,8128,8374,8375,8416,8415
6771,8088,8089,8130,8129,8375,8376,8417,8416
6772,8089,8090,8131,8130,8376,8377,8418,8417
6773,8090,8091,8132,8131,8377,8378,8419,8418
6774,8091,8092,8133,8132,8378,8379,8420,8419
6775,8092,8093,8134,8133,8379,8380,8421,8420
6776,8093,8094,8135,8134,8380,8381,8422,8421
6777,8094,8095,8136,8135,8381,8382,8423,8422
6778,8095,8096,8137,8136,8382,8383,8424,8423
6779,8096,8097,8138,8137,8383,8384,8425,8424
6780,8097,8098,8139,8138,8384,8385,8426,8425
6781,8098,8099,8140,8139,8385,8386,8427,8426
6782,8099,8100,8141,8140,8386,8387,8428,8427
6783,8100,8101,8142,8141,8387,8388,8429,8428
6784,8101,8102,8143,8142,8388,8389,8430,8429
6785,8102,8103,8144,8143,8389,8390,8431,8430
6786,8103,8104,8145,8144,8390,8391,8432,8431
6787,8104,8105,8146,8145,8391,8392,8433,8432
6788,8105,8106,8147,8146,8392,8393,8434,8433
6789,8106,8107,8148,8147,8393,8394,8435,8434
6790,8107,8108,8149,8148,8394,8395,8436,8435
6791,8108,8109,8150,8149,8395,8396,8437,8436
6792,8109,8110,8151,8150,8396,8397,8438,8437
6793,8110,8111,8152,8151,8397,8398,8439,8438
6794,8111,8112,8153,8152,8398,8399,8440,8439
6795,8112,8113,8154,8153,8399,8400,8441,8440
6796,8113,8114,8155,8154,8400,8401,8442,8441
6797,8114,8115,8156,8155,8401,8402,8443,8442
6798,8115,8116,8157,8156,8402,8403,8444,8443
6799,8116,8117,8158,8157,8403,8404,8445,8444
6800,8117,8118,8159,8158,8404,8405,8446,8445
6801,8119,8120,8161,8160,8406,8407,8448,8447
6802,8120,8121,8162,8161,8407,8408,8449,8448
6803,8121,8122,8163,8162,8408,8409,8450,8449
6804,8122,8123,8164,8163,8409,8410,8451,8450
6805,8123,8124,8165,8164,8410,8411,8452,8451
6806,8124,8125,8166,8165,8411,8412,8453,8452
6807,8125,8126,8167,8166,8412,8413,8454,8453
6808,8126,8127,8168,8167,8413,8414,8455,8454
6809,8127,8128,8169,8168,8414,8415,8456,8455
6810,8128,8129,8170,8169,8415,8416,8457,8456
6811,8129,8130,8171,8170,8416,8417,8458,8457
6812,8130,8131,8172,8171,8417,8418,8459,8458
6813,8131,8132,8173,8172,8418,8419,8460,8459
6814,8132,8133,8174,8173,8419,8420,8461,8460
6815,8133,8134,8175,8174,8420,8421,8462,8461
6816,8134,8135,8176,8175,8421,8422,8463,8462
6817,8135,8136,8177,8176,8422,8423,8464,8463
6818,8136,8137,8178,8177,8423,8424,8465,8464
6819,8137,8138,8179,8178,8424,8425,8466,8465
6820,8138,8139,8180,8179,8425,8426,8467,8466
6821,8139,8140,8181,8180,8426,8427,8468,8467
6822,8140,8141,8182,8181,8427,8428,8469,8468
6823,8141,8142,8183,8182,8428,8429,8470,8469
6824,8142,8143,8184,8183,8429,8430,8471,8470
6825,8143,8144,8185,8184,8430,8431,8472,8471
6826,8144,8145,8186,8185,8431,8432,8473,8472
6827,8145,8146,8187,8186,8432,8433,8474,8473
6828,8146,8147,8188,8187,8433,8434,8475,8474
6829,8147,8148,8189,8188,8434,8435,8476,8475
6830,8148,8149,8190,8189,8435,8436,8477,8476
6831,8149,8150,8191,8190,8436,8437,8478,8477
6832,8150,8151,8192,8191,8437,8438,8479,8478
6833,8151,8152,8193,8192,8438,8439,8480,8479
6834,8152,8153,8194,8193,8439,8440,8481,8480
6835,8153,8154,8195,8194,8440,8441,8482,8481
6836,8154,8155,8196,8195,8441,8442,8483,8482
6837,8155,8156,8197,8196,8442,8443,8484,8483
6838,8156,8157,8198,8197,8443,8444,8485,8484
6839,8157,8158,8199,8198,8444,8445,8486,8485
6840,8158,8159,8200,8199,8445,8446,8487,8486
6841,8160,8161,8202,8201,8447,8448,8489,8488
6842,8161,8162,8203,8202,8448,8449,8490,8489
6843,8162,8163,8204,8203,8449,8450,8491,8490
6844,8163,8164,8205,8204,8450,8451,8492,8491
6845,8164,8165,8206,8205,8451,8452,8493,8492
6846,8165,8166,8207,8206,8452,8453,8494,8493
6847,8166,8167,8208,8207,8453,8454,8495,8494
6848,8167,8168,8209,8208,8454,8455,8496,8495
6849,8168,8169,8210,8209,8455,8456,8497,8496
6850,8169,8170,8211,8210,8456,8457,8498,8497
6851,8170,8171,8212,8211,8457,8458,8499,8498
6852,8171,8172,8213,8212,8458,8459,8500,8499
6853,8172,8173,8214,8213,8459,8460,8501,8500
6854,8173,8174,8215,8214,8460,8461,8502,8501
6855,8174,8175,8216,8215,8461,8462,8503,8502
6856,8175,8176,8217,8216,8462,8463,8504,8503
6857,8176,8177,8218,8217,8463,8464,8505,8504
6858,8177,8178,8219,8218,8464,8465,8506,8505
6859,8178,8179,8220,8219,8465,8466,8507,8506
6860,8179,8180,8221,8220,8466,8467,8508,8507
6861,8180,8181,8222,8221,8467,8468,8509,8508
6862,8181,8182,8223,8222,8468,8469,8510,8509
6863,8182,8183,8224,8223,8469,8470,8511,8510
6864,8183,8184,8225,8224,8470,8471,8512,8511
6865,8184,8185,8226,8225,8471,8472,8513,8512
6866,8185,8186,8227,8226,8472,8473,8514,8513
6867,8186,8187,8228,8227,8473,8474,8515,8514
6868,8187,8188,8229,8228,8474,8475,8516,8515
6869,8188,8189,8230,8229,8475,8476,8517,8516
6870,8189,8190,8231,8230,8476,8477,8518,8517
6871,8190,8191,8232,8231,8477,8478,8519,8518
6872,8191,8192,8233,8232,8478,8479,8520,8519
6873,8192,8193,8234,8233,8479,8480,8521,8520
6874,8193,8194,8235,8234,8480,8481,8522,8521
6875,8194,8195,8236,8235,8481,8482,8523,8522
6876,8195,8196,8237,8236,8482,8483,8524,8523
6877,8196,8197,8238,8237,8483,8484,8525,8524
6878,8197,8198,8239,8238,8484,8485,8526,8525
6879,8198,8199,8240,8239,8485,8486,8527,8526
6880,8199,8200,8241,8240,8486,8487,8528,8527
6881,8201,8202,8243,8242,8488,8489,8530,8529
6882,8202,8203,8244,8243,8489,8490,8531,8530
6883,8203,8204,8245,8244,8490,8491,8532,8531
6884,8204,8205,8246,8245,8491,8492,8533,8532
6885,8205,8206,8247,8246,8492,8493,8534,8533
6886,8206,8207,8248,8247,8493,8494,8535,8534
6887,8207,8208,8249,8248,8494,8495,8536,8535
6888,8208,8209,8250,8249,8495,8496,8537,8536
6889,8209,8210,8251,8250,8496,8497,8538,8537
6890,8210,8211,8252,8251,8497,8498,8539,8538
6891,8211,8212,8253,8252,8498,8499,8540,8539
6892,8212,8213,8254,8253,8499,8500,8541,8540
6893,8213,8214,8255,8254,8500,8501,8542,8541
6894,8214,8215,8256,8255,8501,8502,8543,8542
6895,8215,8216,8257,8256,8502,8503,8544,8543
6896,8216,8217,8258,8257,8503,8504,8545,8544
6897,8217,8218,8259,8258,8504,8505,8546,8545
6898,8218,8219,8260,8259,8505,8506,8547,8546
6899,8219,8220,8261,8260,8506,8507,8548,8547
6900,8220,8221,8262,8261,8507,8508,8549,8548
6901,8221,8222,8263,8262,8508,8509,8550,8549
6902,8222,8223,8264,8263,8509,8510,8551,8550
6903,8223,8224,8265,8264,8510,8511,8552,8551
6904,8224,8225,8266,8265,8511,8512,8553,8552
6905,8225,8226,8267,8266,8512,8513,8554,8553
6906,8226,8227,8268,8267,8513,8514,8555,8554
6907,8227,8228,8269,8268,8514,8515,8556,8555
6908,8228,8229,8270,8269,8515,8516,8557,8556
6909,8229,8230,8271,8270,8516,8517,8558,8557
6910,8230,8231,8272,8271,8517,8518,8559,8558
6911,8231,8232,8273,8272,8518,8519,8560,8559
6912,8232,8233,8274,8273,8519,8520,8561,8560
6913,8233,8234,8275,8274,8520,8521,8562,8561
6914,8234,8235,8276,8275,8521,8522,8563,8562
6915,8235,8236,8277,8276,8522,8523,8564,8563
6916,8236,8237,8278,8277,8523,8524,8565,8564
6917,8237,8238,8279,8278,8524,8525,8566,8565
6918,8238,8239,8280,8279,8525,8526,8567,8566
6919,8239,8240,8281,8280,8526,8527,8568,8567
6920,8240,8241,8282,8281,8527,8528,8569,8568
6921,8242,8243,8284,8283,8529,8530,8571,8570
6922,8243,8244,8285,8284,8530,8531,8572,8571
6923,8244,8245,8286,8285,8531,8532,8573,8572
6924,8245,8246,8287,8286,8532,8533,8574,8573
6925,8246,8247,8288,8287,8533,8534,8575,8574
6926,8247,8248,8289,8288,8534,8535,8576,8575
6927,8248,8249,8290,8289,8535,8536,8577,8576
6928,8249,8250,8291,8290,8536,8537,8578,8577
6929,8250,8251,8292,8291,8537,8538,8579,8578
6930,8251,8252,8293,8292,8538,8539,8580,8579
6931,8252,8253,8294,8293,8539,8540,8581,8580
6932,8253,8254,8295,8294,8540,8541,8582,8581
6933,8254,8255,8296,8295,8541,8542,8583,8582
6934,8255,8256,8297,8296,8542,8543,8584,8583
6935,8256,8257,8298,8297,8543,8544,8585,8584
6936,8257,8258,8299,8298,8544,8545,8586,8585
6937,8258,8259,8300,8299,8545,8546,8587,8586
6938,8259,8260,8301,8300,8546,8547,8588,8587
6939,8260,8261,8302,8301,8547,8548,8589,8588
6940,8261,8262,8303,8302,8548,8549,8590,8589
6941,8262,8263,8304,8303,8549,8550,8591,8590
6942,8263,8264,8305,8304,8550,8551,8592,8591
6943,8264,8265,8306,8305,8551,8552,8593,8592
6944,8265,8266,8307,8306,8552,8553,8594,8593
6945,8266,8267,8308,8307,8553,8554,8595,8594
6946,8267,8268,8309,8308,8554,8555,8596,8595
6947,8268,8269,8310,8309,8555,8556,8597,8596
6948,8269,8270,8311,8310,8556,8557,8598,8597
6949,8270,8271,8312,8311,8557,8558,8599,8598
6950,8271,8272,8313,8312,8558,8559,8600,8599
6951,8272,8273,8314,8313,8559,8560,8601,8600
6952,8273,8274,8315,8314,8560,8561,8602,8601
6953,8274,8275,8316,8315,8561,8562,8603,8602
6954,8275,8276,8317,8316,8562,8563,8604,8603
6955,8276,8277,8318,8317,8563,8564,8605,8604
6956,8277,8278,8319,8318,8564,8565,8606,8605
6957,8278,8279,8320,8319,8565,8566,8607,8606
6958,8279,8280,8321,8320,8566,8567,8608,8607
6959,8280,8281,8322,8321,8567,8568,8609,8608
6960,8281,8282,8323,8322,8568,8569,8610,8609
6961,8324,8325,8366,8365,8611,8612,8653,8652
6962,8325,8326,8367,8366,8612,8613,8654,8653
6963,8326,8327,8368,8367,8613,8614,8655,8654
6964,8327,8328,8369,8368,8614,8615,8656,8655
6965,8328,8329,8370,8369,8615,8616,8657,8656
6966,8329,8330,8371,8370,8616,8617,8658,8657
6967,8330,8331,8372,8371,8617,8618,8659,8658
6968,8331,8332,8373,8372,8618,8619,8660,8659
6969,8332,8333,8374,8373,8619,8620,8661,8660
6970,8333,8334,8375,8374,8620,8621,8662,8661
6971,8334,8335,8376,8375,8621,8622,8663,8662
6972,8335,8336,8377,8376,8622,8623,8664,8663
6973,8336,8337,8378,8377,8623,8624,8665,8664
6974,8337,8338,8379,8378,8624,8625,8666,8665
6975,8338,8339,8380,8379,8625,8626,8667,8666
6976,8339,8340,8381,8380,8626,8627,8668,8667
6977,8340,8341,8382,8381,8627,8628,8669,8668
6978,8341,8342,8383,8382,8628,8629,8670,8669
6979,8342,8343,8384,8383,8629,8630,8671,8670
6980,8343,8344,8385,8384,8630,8631,8672,8671
6981,8344,8345,8386,8385,8631,8632,8673,8672
6982,8345,8346,8387,8386,8632,8633,8674,8673
6983,8346,8347,8388,8387,8633,8634,8675,8674
6984,8347,8348,8389,8388,8634,8635,8676,8675
6985,8348,8349,8390,8389,8635,8636,8677,8676
6986,8349,8350,8391,8390,8636,8637,8678,8677
6987,8350,8351,8392,8391,8637,8638,8679,8678
6988,8351,8352,8393,8392,8638,8639,8680,8679
6989,8352,8353,8394,8393,8639,8640,8681,8680
6990,8353,8354,8395,8394,8640,8641,8682,8681
6991,8354,8355,8396,8395,8641,8642,8683,8682
6992,8355,8356,8397,8396,8642,8643,8684,8683
6993,8356,8357,8398,8397,8643,8644,8685,8684
6994,8357,8358,8399,8398,8644,8645,8686,8685
6995,8358,8359,8400,8399,8645,8646,8687,8686
6996,8359,8360,8401,8400,8646,8647,8688,8687
6997,8360,8361,8402,8401,8647,8648,8689,8688
6998,8361,8362,8403,8402,8648,8649,8690,8689
6999,8362,8363,8404,8403,8649,8650,8691,8690
7000,8363,8364,8405,8404,8650,8651,8692,8691
7001,8365,8366,8407,8406,8652,8653,8694,8693
7002,8366,8367,8408,8407,8653,8654,8695,8694
7003,8367,8368,8409,8408,8654,8655,8696,8695
7004,8368,8369,8410,8409,8655,8656,8697,8696
7005,8369,8370,8411,8410,8656,8657,8698,8697
7006,8370,8371,8412,8411,8657,8658,8699,8698
7007,8371,8372,8413,8412,8658,8659,8700,8699
7008,8372,8373,8414,8413,8659,8660,8701,8700
7009,8373,8374,8415,8414,8660,8661,8702,8701
7010,8374,8375,8416,8415,8661,8662,8703,8702
7011,8375,8376,8417,8416,8662,8663,8704,8703
7012,8376,8377,8418,8417,8663,8664,8705,8704
7013,8377,8378,8419,8418,8664,8665,8706,8705
7014,8378,8379,8420,8419,8665,8666,8707,8706
7015,8379,8380,8421,8420,8666,8667,8708,8707
7016,8380,8381,8422,8421,8667,8668,8709,8708
7017,8381,8382,8423,8422,8668,8669,8710,8709
7018,8382,8383,8424,8423,8669,8670,8711,8710
7019,8383,8384,8425,8424,8670,8671,8712,8711
7020,8384,8385,8426,8425,8671,8672,8713,8712
7021,8385,8386,8427,8426,8672,8673,8714,8713
7022,8386,8387,8428,8427,8673,8674,8715,8714
7023,8387,8388,8429,8428,8674,8675,8716,8715
7024,8388,8389,8430,8429,8675,8676,8717,8716
7025,8389,8390,8431,8430,8676,8677,8718,8717
7026,8390,8391,8432,8431,8677,8678,8719,8718
7027,8391,8392,8433,8432,8678,8679,8720,8719
7028,8392,8393,8434,8433,8679,8680,8721,8720
7029,8393,8394,8435,8434,8680,8681,8722,8721
7030,8394,8395,8436,8435,8681,8682,8723,8722
7031,8395,8396,8437,8436,8682,8683,8724,8723
7032,8396,8397,8438,8437,8683,8684,8725,8724
7033,8397,8398,8439,8438,8684,8685,8726,8725
7034,8398,8399,8440,8439,8685,8686,8727,8726
7035,8399,8400,8441,8440,8686,8687,8728,8727
7036,8400,8401,8442,8441,8687,8688,8729,8728
7037,8401,8402,8443,8442,8688,8689,8730,8729
7038,8402,8403,8444,8443,8689,8690,8731,8730
7039,8403,8404,8445,8444,8690,8691,8732,8731
7040,8404,8405,8446,8445,8691,8692,8733,8732
7041,8406,8407,8448,8447,8693,8694,8735,8734
7042,8407,8408,8449,8448,8694,8695,8736,8735
7043,8408,8409,8450,8449,8695,8696,8737,8736
7044,8409,8410,8451,8450,8696,8697,8738,8737
7045,8410,8411,8452,8451,8697,8698,8739,8738
7046,8411,8412,8453,8452,8698,8699,8740,8739
7047,8412,8413,8454,8453,8699,8700,8741,8740
7048,8413,8414,8455,8454,8700,8701,8742,8741
7049,8414,8415,8456,8455,8701,8702,8743,8742
7050,8415,8416,8457,8456,8702,8703,8744,8743
7051,8416,8417,8458,8457,8703,8704,8745,8744
7052,8417,8418,8459,8458,8704,8705,8746,8745
7053,8418,8419,8460,8459,8705,8706,8747,8746
7054,8419,8420,8461,8460,8706,8707,8748,8747
7055,8420,8421,8462,8461,8707,8708,8749,8748
7056,8421,8422,8463,8462,8708,8709,8750,8749
7057,8422,8423,8464,8463,8709,8710,8751,8750
7058,8423,8424,8465,8464,8710,8711,8752,8751
7059,8424,8425,8466,8465,8711,8712,8753,8752
7060,8425,8426,8467,8466,8712,8713,8754,8753
7061,8426,8427,8468,8467,8713,8714,8755,8754
7062,8427,8428,8469,8468,8714,8715,8756,8755
7063,8428,8429,8470,8469,8715,8716,8757,8756
7064,8429,8430,8471,8470,8716,8717,8758,8757
7065,8430,8431,8472,8471,8717,8718,8759,8758
7066,8431,8432,8473,8472,8718,8719,8760,8759
7067,8432,8433,8474,8473,8719,8720,8761,8760
7068,8433,8434,8475,8474,8720,8721,8762,8761
7069,8434,8435,8476,8475,8721,8722,8763,8762
7070,8435,8436,8477,8476,8722,8723,8764,8763
7071,8436,8437,8478,8477,8723,8724,8765,8764
7072,8437,8438,8479,8478,8724,8725,8766,8765
7073,8438,8439,8480,8479,8725,8726,8767,8766
7074,8439,8440,8481,8480,8726,8727,8768,8767
7075,8440,8441,8482,8481,8727,8728,8769,8768
7076,8441,8442,8483,8482,8728,8729,8770,8769
7077,8442,8443,8484,8483,8729,8730,8771,8770
7078,8443,8444,8485,8484,8730,8731,8772,8771
7079,8444,8445,8486,8485,8731,8732,8773,8772
7080,8445,8446,8487,8486,8732,8733,8774,8773
7081,8447,8448,8489,8488,8734,8735,8776,8775
7082,8448,8449,8490,8489,8735,8736,8777,8776
7083,8449,8450,8491,8490,8736,8737,8778,8777
7084,8450,8451,8492,8491,8737,8738,8779,8778
7085,8451,8452,8493,8492,8738,8739,8780,8779
7086,8452,8453,8494,8493,8739,8740,8781,8780
7087,8453,8454,8495,8494,8740,8741,8782,8781
7088,8454,8455,8496,8495,8741,8742,8783,8782
7089,8455,8456,8497,8496,8742,8743,8784,8783
7090,8456,8457,8498,8497,8743,8744,8785,8784
7091,8457,8458,8499,8498,8744,8745,8786,8785
7092,8458,8459,8500,8499,8745,8746,8787,8786
7093,8459,8460,8501,8500,8746,8747,8788,8787
7094,8460,8461,8502,8501,8747,8748,8789,8788
7095,8461,8462,8503,8502,8748,8749,8790,8789
7096,8462,8463,8504,8503,8749,8750,8791,8790
7097,8463,8464,8505,8504,8750,8751,8792,8791
7098,8464,8465,8506,8505,8751,8752,8793,8792
7099,8465,8466,8507,8506,8752,8753,8794,8793
7100,8466,8467,8508,8507,8753,8754,8795,8794
7101,8467,8468,8509,8508,8754,8755,8796,8795
7102,8468,8469,8510,8509,8755,8756,8797,8796
7103,8469,8470,8511,8510,8756,8757,8798,8797
7104,8470,8471,8512,8511,8757,8758,8799,8798
7105,8471,8472,8513,8512,8758,8759,8800,8799
7106,8472,8473,8514,8513,8759,8760,8801,8800
7107,8473,8474,8515,8514,8760,8761,8802,8801
7108,8474,8475,8516,8515,8761,8762,8803,8802
7109,8475,8476,8517,8516,8762,8763,8804,8803
7110,8476,8477,8518,8517,8763,8764,8805,8804
7111,8477,8478,8519,8518,8764,8765,8806,8805
7112,8478,8479,8520,8519,8765,8766,8807,8806
7113,8479,8480,8521,8520,8766,8767,8808,8807
7114,8480,8481,8522,8521,8767,8768,8809,8808
7115,8481,8482,8523,8522,8768,8769,8810,8809
7116,8482,8483,8524,8523,8769,8770,8811,8810
7117,8483,8484,8525,8524,8770,8771,8812,8811
7118,8484,8485,8526,8525,8771,8772,8813,8812
7119,8485,8486,8527,8526,8772,8773,8814,8813
7120,8486,8487,8528,8527,8773,8774,8815,8814
7121,8488,8489,8530,8529,8775,8776,8817,8816
7122,8489,8490,8531,8530,8776,8777,8818,8817
7123,8490,8491,8532,8531,8777,8778,8819,8818
7124,8491,8492,8533,8532,8778,8779,8820,8819
7125,8492,8493,8534,8533,8779,8780,8821,8820
7126,8493,8494,8535,8534,8780,8781,8822,8821
7127,8494,8495,8536,8535,8781,8782,8823,8822
7128,8495,8496,8537,8536,8782,8783,8824,8823
7129,8496,8497,8538,8537,8783,8784,8825,8824
7130,8497,8498,8539,8538,8784,8785,8826,8825
7131,8498,8499,8540,8539,8785,8786,8827,8826
7132,8499,8500,8541,8540,8786,8787,8828,8827
7133,8500,8501,8542,8541,8787,8788,8829,8828
7134,8501,8502,8543,8542,8788,8789,8830,8829
7135,8502,8503,8544,8543,8789,8790,8831,8830
7136,8503,8504,8545,8544,8790,8791,8832,8831
7137,8504,8505,8546,8545,8791,8792,8833,8832
7138,8505,8506,8547,8546,8792,8793,8834,8833
7139,8506,8507,8548,8547,8793,8794,8835,8834
7140,8507,8508,8549,8548,8794,8795,8836,8835
7141,8508,8509,8550,8549,8795,8796,8837,8836
7142,8509,8510,8551,8550,8796,8797,8838,8837
7143,8510,8511,8552,8551,8797,8798,8839,8838
7144,8511,8512,8553,8552,8798,8799,8840,8839
7145,8512,8513,8554,8553,8799,8800,8841,8840
7146,8513,8514,8555,8554,8800,8801,8842,8841
7147,8514,8515,8556,8555,8801,8802,8843,8842
7148,8515,8516,8557,8556,8802,8803,8844,8843
7149,8516,8517,8558,8557,8803,8804,8845,8844
7150,8517,8518,8559,8558,8804,8805,8846,8845
7151,8518,8519,8560,8559,8805,8806,8847,8846
7152,8519,8520,8561,8560,8806,8807,8848,8847
7153,8520,8521,8562,8561,8807,8808,8849,8848
7154,8521,8522,8563,8562,8808,8809,8850,8849
7155,8522,8523,8564,8563,8809,8810,8851,8850
7156,8523,8524,8565,8564,8810,8811,8852,8851
7157,8524,8525,8566,8565,8811,8812,8853,8852
7158,8525,8526,8567,8566,8812,8813,8854,8853
7159,8526,8527,8568,8567,8813,8814,8855,8854
7160,8527,8528,8569,8568,8814,8815,8856,8855
7161,8529,8530,8571,8570,8816,8817,8858,8857
7162,8530,8531,8572,8571,8817,8818,8859,8858
7163,8531,8532,8573,8572,8818,8819,8860,8859
7164,8532,8533,8574,8573,8819,8820,8861,8860
7165,8533,8534,8575,8574,8820,8821,8862,8861
7166,8534,8535,8576,8575,8821,8822,8863,8862
7167,8535,8536,8577,8576,8822,8823,8864,8863
7168,8536,8537,8578,8577,8823,8824,8865,8864
7169,8537,8538,8579,8578,8824,8825,8866,8865
7170,8538,8539,8580,8579,8825,8826,8867,8866
7171,8539,8540,8581,8580,8826,8827,8868,8867
7172,8540,8541,8582,8581,8827,8828,8869,8868
7173,8541,8542,8583,8582,8828,8829,8870,8869
7174,8542,8543,8584,8583,8829,8830,8871,8870
7175,8543,8544,8585,8584,8830,8831,8872,8871
7176,8544,8545,8586,8585,8831,8832,8873,8872
7177,8545,8546,8587,8586,8832,8833,8874,8873
7178,8546,8547,8588,8587,8833,8834,8875,8874
7179,8547,8548,8589,8588,8834,8835,8876,8875
7180,8548,8549,8590,8589,8835,8836,8877,8876
7181,8549,8550,8591,8590,8836,8837,8878,8877
7182,8550,8551,8592,8591,8837,8838,8879,8878
7183,8551,8552,8593,8592,8838,8839,8880,8879
7184,8552,8553,8594,8593,8839,8840,8881,8880
7185,8553,8554,8595,8594,8840,8841,8882,8881
7186,8554,8555,8596,8595,8841,8842,8883,8882
7187,8555,8556,8597,8596,8842,8843,8884,8883
7188,8556,8557,8598,8597,8843,8844,8885,8884
7189,8557,8558,8599,8598,8844,8845,8886,8885
7190,8558,8559,8600,8599,8845,8846,8887,8886
7191,8559,8560,8601,8600,8846,8847,8888,8887
7192,8560,8561,8602,8601,8847,8848,8889,8888
7193,8561,8562,8603,8602,8848,8849,8890,8889
7194,8562,8563,8604,8603,8849,8850,8891,8890
7195,8563,8564,8605,8604,8850,8851,8892,8891
7196,8564,8565,8606,8605,8851,8852,8893,8892
7197,8565,8566,8607,8606,8852,8853,8894,8893
7198,8566,8567,8608,8607,8853,8854,8895,8894
7199,8567,8568,8609,8608,8854,8855,8896,8895
7200,8568,8569,8610,8609,8855,8856,8897,8896
7201,8611,8612,8653,8652,8898,8899,8940,8939
7202,8612,8613,8654,8653,8899,8900,8941,8940
7203,8613,8614,8655,8654,8900,8901,8942,8941
7204,8614,8615,8656,8655,8901,8902,8943,8942
7205,8615,8616,8657,8656,8902,8903,8944,8943
7206,8616,8617,8658,8657,8903,8904,8945,8944
7207,8617,8618,8659,8658,8904,8905,8946,8945
7208,8618,8619,8660,8659,8905,8906,8947,8946
7209,8619,8620,8661,8660,8906,8907,8948,8947
7210,8620,8621,8662,8661,8907,8908,8949,8948
7211,8621,8622,8663,8662,8908,8909,8950,8949
7212,8622,8623,8664,8663,8909,8910,8951,8950
7213,8623,8624,8665,8664,8910,8911,8952,8951
7214,8624,8625,8666,8665,8911,8912,8953,8952
7215,8625,8626,8667,8666,8912,8913,8954,8953
7216,8626,8627,8668,8667,8913,8914,8955,8954
7217,8627,8628,8669,8668,8914,8915,8956,8955
7218,8628,8629,8670,8669,8915,8916,8957,8956
7219,8629,8630,8671,8670,8916,8917,8958,8957
7220,8630,8631,8672,8671,8917,8918,8959,8958
7221,8631,8632,8673,8672,8918,8919,8960,8959
7222,8632,8633,8674,8673,8919,8920,8961,8960
7223,8633,8634,8675,8674,8920,8921,8962,8961
7224,8634,8635,8676,8675,8921,8922,8963,8962
7225,8635,8636,8677,8676,8922,8923,8964,8963
7226,8636,8637,8678,8677,8923,8924,8965,8964
7227,8637,8638,8679,8678,8924,8925,8966,8965
7228,8638,8639,8680,8679,8925,8926,8967,8966
7229,8639,8640,8681,8680,8926,8927,8968,8967
7230,8640,8641,8682,8681,8927,8928,8969,8968
7231,8641,8642,8683,8682,8928,8929,8970,8969
7232,8642,8643,8684,8683,8929,8930,8971,8970
7233,8643,8644,8685,8684,8930,8931,8972,8971
7234,8644,8645,8686,8685,8931,8932,8973,8972
7235,8645,8646,8687,8686,8932,8933,8974,8973
7236,8646,8647,8688,8687,8933,8934,8975,8974
7237,8647,8648,8689,8688,8934,8935,8976,8975
7238,8648,8649,8690,8689,8935,8936,8977,8976
7239,8649,8650,8691,8690,8936,8937,8978,8977
7240,8650,8651,8692,8691,8937,8938,8979,8978
7241,8652,8653,8694,8693,8939,8940,8981,8980
7242,8653,8654,8695,8694,8940,8941,8982,8981
7243,8654,8655,8696,8695,8941,8942,8983,8982
7244,8655,8656,8697,8696,8942,8943,8984,8983
7245,8656,8657,8698,8697,8943,8944,8985,8984
7246,8657,8658,8699,8698,8944,8945,8986,8985
7247,8658,8659,8700,8699,8945,8946,8987,8986
7248,8659,8660,8701,8700,8946,8947,8988,8987
7249,8660,8661,8702,8701,8947,8948,8989,8988
7250,8661,8662,8703,8702,8948,8949,8990,8989
7251,8662,8663,8704,8703,8949,8950,8991,8990
7252,8663,8664,8705,8704,8950,8951,8992,8991
7253,8664,8665,8706,8705,8951,8952,8993,8992
7254,8665,8666,8707,8706,8952,8953,8994,8993
7255,8666,8667,8708,8707,8953,8954,8995,8994
7256,8667,8668,8709,8708,8954,8955,8996,8995
7257,8668,8669,8710,8709,8955,8956,8997,8996
7258,8669,8670,8711,8710,8956,8957,8998,8997
7259,8670,8671,8712,8711,8957,8958,8999,8998
7260,8671,8672,8713,8712,8958,8959,9000,8999
7261,8672,8673,8714,8713,8959,8960,9001,9000
7262,8673,8674,8715,8714,8960,8961,9002,9001
7263,8674,8675,8716,8715,8961,8962,9003,9002
7264,8675,8676,8717,8716,8962,8963,9004,9003
7265,8676,8677,8718,8717,8963,8964,9005,9004
7266,8677,8678,8719,8718,8964,8965,9006,9005
7267,8678,8679,8720,8719,8965,8966,9007,9006
7268,8679,8680,8721,8720,8966,8967,9008,9007
7269,8680,8681,8722,8721,8967,8968,9009,9008
7270,8681,8682,8723,8722,8968,8969,9010,9009
7271,8682,8683,8724,8723,8969,8970,9011,9010
7272,8683,8684,8725,8724,8970,8971,9012,9011
7273,8684,8685,8726,8725,8971,8972,9013,9012
7274,8685,8686,8727,8726,8972,8973,9014,9013
7275,8686,8687,8728,8727,8973,8974,9015,9014
7276,8687,8688,8729,8728,8974,8975,9016,9015
7277,8688,8689,8730,8729,8975,8976,9017,9016
7278,8689,8690,8731,8730,8976,8977,9018,9017
7279,8690,8691,8732,8731,8977,8978,9019,9018
7280,8691,8692,8733,8732,8978,8979,9020,9019
7281,8693,8694,8735,8734,8980,8981,9022,9021
7282,8694,8695,8736,8735,8981,8982,9023,9022
7283,8695,8696,8737,8736,8982,8983,9024,9023
7284,8696,8697,8738,8737,8983,8984,9025,9024
7285,8697,8698,8739,8738,8984,8985,9026,9025
7286,8698,8699,8740,8739,8985,8986,9027,9026
7287,8699,8700,8741,8740,8986,8987,9028,9027
7288,8700,8701,8742,8741,8987,8988,9029,9028
7289,8701,8702,8743,8742,8988,8989,9030,9029
7290,8702,8703,8744,8743,8989,8990,9031,9030
7291,8703,8704,8745,8744,8990,8991,9032,9031
7292,8704,8705,8746,8745,8991,8992,9033,9032
7293,8705,8706,8747,8746,8992,8993,9034,9033
7294,8706,8707,8748,8747,8993,8994,9035,9034
7295,8707,8708,8749,8748,8994,8995,9036,9035
7296,8708,8709,8750,8749,8995,8996,9037,9036
7297,8709,8710,8751,8750,8996,8997,9038,9037
7298,8710,8711,8752,8751,8997,8998,9039,9038
7299,8711,8712,8753,8752,8998,8999,9040,9039
7300,8712,8713,8754,8753,8999,9000,9041,9040
7301,8713,8714,8755,8754,9000,9001,9042,9041
7302,8714,8715,8756,8755,9001,9002,9043,9042
7303,8715,8716,8757,8756,9002,9003,9044,9043
7304,8716,8717,8758,8757,9003,9004,9045,9044
7305,8717,8718,8759,8758,9004,9005,9046,9045
7306,8718,8719,8760,8759,9005,9006,9047,9046
7307,8719,8720,8761,8760,9006,9007,9048,9047
7308,8720,8721,8762,8761,9007,9008,9049,9048
7309,8721,8722,8763,8762,9008,9009,9050,9049
7310,8722,8723,8764,8763,9009,9010,9051,9050
7311,8723,8724,8765,8764,9010,9011,9052,9051
7312,8724,8725,8766,8765,9011,9012,9053,9052
7313,8725,8726,8767,8766,9012,9013,9054,9053
7314,8726,8727,8768,8767,9013,9014,9055,9054
7315,8727,8728,8769,8768,9014,9015,9056,9055
7316,8728,8729,8770,8769,9015,9016,9057,9056
7317,8729,8730,8771,8770,9016,9017,9058,9057
7318,8730,8731,8772,8771,9017,9018,9059,9058
7319,8731,8732,8773,8772,9018,9019,9060,9059
7320,8732,8733,8774,8773,9019,9020,9061,9060
7321,8734,8735,8776,8775,9021,9022,9063,9062
7322,8735,8736,8777,8776,9022,9023,9064,9063
7323,8736,8737,8778,8777,9023,9024,9065,9064
7324,8737,8738,8779,8778,9024,9025,9066,9065
7325,8738,8739,8780,8779,9025,9026,9067,9066
7326,8739,8740,8781,8780,9026,9027,9068,9067
7327,8740,8741,8782,8781,9027,9028,9069,9068
7328,8741,8742,8783,8782,9028,9029,9070,9069
7329,8742,8743,8784,8783,9029,9030,9071,9070
7330,8743,8744,8785,8784,9030,9031,9072,9071
7331,8744,8745,8786,8785,9031,9032,9073,9072
7332,8745,8746,8787,8786,9032,9033,9074,9073
7333,8746,8747,8788,8787,9033,9034,9075,9074
7334,8747,8748,8789,8788,9034,9035,9076,9075
7335,8748,8749,8790,8789,9035,9036,9077,9076
7336,8749,8750,8791,8790,9036,9037,9078,9077
7337,8750,8751,8792,8791,9037,9038,9079,9078
7338,8751,8752,8793,8792,9038,9039,9080,9079
7339,8752,8753,8794,8793,9039,9040,9081,9080
7340,8753,8754,8795,8794,9040,9041,9082,9081
7341,8754,8755,8796,8795,9041,9042,9083,9082
7342,8755,8756,8797,8796,9042,9043,9084,9083
7343,8756,8757,8798,8797,9043,9044,9085,9084
7344,8757,8758,8799,8798,9044,9045,9086,9085
7345,8758,8759,8800,8799,9045,9046,9087,9086
7346,8759,8760,8801,8800,9046,9047,9088,9087
7347,8760,8761,8802,8801,9047,9048,9089,9088
7348,8761,8762,8803,8802,9048,9049,9090,9089
7349,8762,8763,8804,8803,9049,9050,9091,9090
7350,8763,8764,8805,8804,9050,9051,9092,9091
7351,8764,8765,8806,8805,9051,9052,9093,9092
7352,8765,8766,8807,8806,9052,9053,9094,9093
7353,8766,8767,8808,8807,9053,9054,9095,9094
7354,8767,8768,8809,8808,9054,9055,9096,9095
7355,8768,8769,8810,8809,9055,9056,9097,9096
7356,8769,8770,8811,8810,9056,9057,9098,9097
7357,8770,8771,8812,8811,9057,9058,9099,9098
7358,8771,8772,8813,8812,9058,9059,9100,9099
7359,8772,8773,8814,8813,9059,9060,9101,9100
7360,8773,8774,8815,8814,9060,9061,9102,9101
7361,8775,8776,8817,8816,9062,9063,9104,9103
7362,8776,8777,8818,8817,9063,9064,9105,9104
7363,8777,8778,8819,8818,9064,9065,9106,9105
7364,8778,8779,8820,8819,9065,9066,9107,9106
7365,8779,8780,8821,8820,9066,9067,9108,9107
7366,8780,8781,8822,8821,9067,9068,9109,9108
7367,8781,8782,8823,8822,9068,9069,9110,9109
7368,8782,8783,8824,8823,9069,9070,9111,9110
7369,8783,8784,8825,8824,9070,9071,9112,9111
7370,8784,8785,8826,8825,9071,9072,9113,9112
7371,8785,8786,8827,8826,9072,9073,9114,9113
7372,8786,8787,8828,8827,9073,9074,9115,9114
7373,8787,8788,8829,8828,9074,9075,9116,9115
7374,8788,8789,8830,8829,9075,9076,9117,9116
7375,8789,8790,8831,8830,9076,9077,9118,9117
7376,8790,8791,8832,8831,9077,9078,9119,9118
7377,8791,8792,8833,8832,9078,9079,9120,9119
7378,8792,8793,8834,8833,9079,9080,9121,9120
7379,8793,8794,8835,8834,9080,9081,9122,9121
7380,8794,8795,8836,8835,9081,9082,9123,9122
7381,8795,8796,8837,8836,9082,9083,9124,9123
7382,8796,8797,8838,8837,9083,9084,9125,9124
7383,8797,8798,8839,8838,9084,9085,9126,9125
7384,8798,8799,8840,8839,9085,9086,9127,9126
7385,8799,8800,8841,8840,9086,9087,9128,9127
7386,8800,8801,8842,8841,9087,9088,9129,9128
7387,8801,8802,8843,8842,9088,9089,9130,9129
7388,8802,8803,8844,8843,9089,9090,9131,9130
7389,8803,8804,8845,8844,9090,9091,9132,9131
7390,8804,8805,8846,8845,9091,9092,9133,9132
7391,8805,8806,8847,8846,9092,9093,9134,9133
7392,8806,8807,8848,8847,9093,9094,9135,9134
7393,8807,8808,8849,8848,9094,9095,9136,9135
7394,8808,8809,8850,8849,9095,9096,9137,9136
7395,8809,8810,8851,8850,9096,9097,9138,9137
7396,8810,8811,8852,8851,9097,9098,9139,9138
7397,8811,8812,8853,8852,9098,9099,9140,9139
7398,8812,8813,8854,8853,9099,9100,9141,9140
7399,8813,8814,8855,8854,9100,9101,9142,9141
7400,8814,8815,8856,8855,9101,9102,9143,9142
7401,8816,8817,8858,8857,9103,9104,9145,9144
7402,8817,8818,8859,8858,9104,9105,9146,9145
7403,8818,8819,8860,8859,9105,9106,9147,9146
7404,8819,8820,8861,8860,9106,9107,9148,9147
7405,8820,8821,8862,8861,9107,9108,9149,9148
7406,8821,8822,8863,8862,9108,9109,9150,9149
7407,8822,8823,8864,8863,9109,9110,9151,9150
7408,8823,8824,8865,8864,9110,9111,9152,9151
7409,8824,8825,8866,8865,9111,9112,9153,9152
7410,8825,8826,8867,8866,9112,9113,9154,9153
7411,8826,8827,8868,8867,9113,9114,9155,9154
7412,8827,8828,8869,8868,9114,9115,9156,9155
7413,8828,8829,8870,8869,9115,9116,9157,9156
7414,8829,8830,8871,8870,9116,9117,9158,9157
7415,8830,8831,8872,8871,9117,9118,9159,9158
7416,8831,8832,8873,8872,9118,9119,9160,9159
7417,8832,8833,8874,8873,9119,9120,9161,9160
7418,8833,8834,8875,8874,9120,9121,9162,9161
7419,8834,8835,8876,8875,9121,9122,9163,9162
7420,8835,8836,8877,8876,9122,9123,9164,9163
7421,8836,8837,8878,8877,9123,9124,9165,9164
7422,8837,8838,8879,8878,9124,9125,9166,9165
7423,8838,8839,8880,8879,9125,9126,9167,9166
7424,8839,8840,8881,8880,9126,9127,9168,9167
7425,8840,8841,8882,8881,9127,9128,9169,9168
7426,8841,8842,8883,8882,9128,9129,9170,9169
7427,8842,8843,8884,8883,9129,9130,9171,9170
7428,8843,8844,8885,8884,9130,9131,9172,9171
7429,8844,8845,8886,8885,9131,9132,9173,9172
7430,8845,8846,8887,8886,9132,9133,9174,9173
7431,8846,8847,8888,8887,9133,9134,9175,9174
7432,8847,8848,8889,8888,9134,9135,9176,9175
7433,8848,8849,8890,8889,9135,9136,9177,9176
7434,8849,8850,8891,8890,9136,9137,9178,9177
7435,8850,8851,8892,8891,9137,9138,9179,9178
7436,8851,8852,8893,8892,9138,9139,9180,9179
7437,8852,8853,8894,8893,9139,9140,9181,9180
7438,8853,8854,8895,8894,9140,9141,9182,9181
7439,8854,8855,8896,8895,9141,9142,9183,9182
7440,8855,8856,8897,8896,9142,9143,9184,9183
7441,8898,8899,8940,8939,9185,9186,9227,9226
7442,8899,8900,8941,8940,9186,9187,9228,9227
7443,8900,8901,8942,8941,9187,9188,9229,9228
7444,8901,8902,8943,8942,9188,9189,9230,9229
7445,8902,8903,8944,8943,9189,9190,9231,9230
7446,8903,8904,8945,8944,9190,9191,9232,9231
7447,8904,8905,8946,8945,9191,9192,9233,9232
7448,8905,8906,8947,8946,9192,9193,9234,9233
7449,8906,8907,8948,8947,9193,9194,9235,9234
7450,8907,8908,8949,8948,9194,9195,9236,9235
7451,8908,8909,8950,8949,9195,9196,9237,9236
7452,8909,8910,8951,8950,9196,9197,9238,9237
7453,8910,8911,8952,8951,9197,9198,9239,9238
7454,8911,8912,8953,8952,9198,9199,9240,9239
7455,8912,8913,8954,8953,9199,9200,9241,9240
7456,8913,8914,8955,8954,9200,9201,9242,9241
7457,8914,8915,8956,8955,9201,9202,9243,9242
7458,8915,8916,8957,8956,9202,9203,9244,9243
7459,8916,8917,8958,8957,9203,9204,9245,9244
7460,8917,8918,8959,8958,9204,9205,9246,9245
7461,8918,8919,8960,8959,9205,9206,9247,9246
7462,8919,8920,8961,8960,9206,9207,9248,9247
7463,8920,8921,8962,8961,9207,9208,9249,9248
7464,8921,8922,8963,8962,9208,9209,9250,9249
7465,8922,8923,8964,8963,9209,9210,9251,9250
7466,8923,8924,8965,8964,9210,9211,9252,9251
7467,8924,8925,8966,8965,9211,9212,9253,9252
7468,8925,8926,8967,8966,9212,9213,9254,9253
7469,8926,8927,8968,8967,9213,9214,9255,9254
7470,8927,8928,8969,8968,9214,9215,9256,9255
7471,8928,8929,8970,8969,9215,9216,9257,9256
7472,8929,8930,8971,8970,9216,9217,9258,9257
7473,8930,8931,8972,8971,9217,9218,9259,9258
7474,8931,8932,8973,8972,9218,9219,9260,9259
7475,8932,8933,8974,8973,9219,9220,9261,9260
7476,8933,8934,8975,8974,9220,9221,9262,9261
7477,8934,8935,8976,8975,9221,9222,9263,9262
7478,8935,8936,8977,8976,9222,9223,9264,9263
7479,8936,8937,8978,8977,9223,9224,9265,9264
7480,8937,8938,8979,8978,9224,9225,9266,9265
7481,8939,8940,8981,8980,9226,9227,9268,9267
7482,8940,8941,8982,8981,9227,9228,9269,9268
7483,8941,8942,8983,8982,9228,9229,9270,9269
7484,8942,8943,8984,8983,9229,9230,9271,9270
7485,8943,8944,8985,8984,9230,9231,9272,9271
7486,8944,8945,8986,8985,9231,9232,9273,9272
7487,8945,8946,8987,8986,9232,9233,9274,9273
7488,8946,8947,8988,8987,9233,9234,9275,9274
7489,8947,8948,8989,8988,9234,9235,9276,9275
7490,8948,8949,8990,8989,9235,9236,9277,9276
7491,8949,8950,8991,8990,9236,9237,9278,9277
7492,8950,8951,8992,8991,9237,9238,9279,9278
7493,8951,8952,8993,8992,9238,9239,9280,9279
7494,8952,8953,8994,8993,9239,9240,9281,9280
7495,8953,8954,8995,8994,9240,9241,9282,9281
7496,8954,8955,8996,8995,9241,9242,9283,9282
7497,8955,8956,8997,8996,9242,9243,9284,9283
7498,8956,8957,8998,8997,9243,9244,9285,9284
7499,8957,8958,8999,8998,9244,9245,9286,9285
7500,8958,8959,9000,8999,9245,9246,9287,9286
7501,8959,8960,9001,9000,9246,9247,9288,9287
7502,8960,8961,9002,9001,9247,9248,9289,9288
7503,8961,8962,9003,9002,9248,9249,9290,9289
7504,8962,8963,9004,9003,9249,9250,9291,9290
7505,8963,8964,9005,9004,9250,9251,9292,9291
7506,8964,8965,9006,9005,9251,9252,9293,9292
7507,8965,8966,9007,9006,9252,9253,9294,9293
7508,8966,8967,9008,9007,9253,9254,9295,9294
7509,8967,8968,9009,9008,9254,9255,9296,9295
7510,8968,8969,9010,9009,9255,9256,9297,9296
7511,8969,8970,9011,9010,9256,9257,9298,9297
7512,8970,8971,9012,9011,9257,9258,9299,9298
7513,8971,8972,9013,9012,9258,9259,9300,9299
7514,8972,8973,9014,9013,9259,9260,9301,9300
7515,8973,8974,9015,9014,9260,9261,9302,9301
7516,8974,8975,9016,9015,9261,9262,9303,9302
7517,8975,8976,9017,9016,9262,9263,9304,9303
7518,8976,8977,9018,9017,9263,9264,9305,9304
7519,8977,8978,9019,9018,9264,9265,9306,9305
7520,8978,8979,9020,9019,9265,9266,9307,9306
7521,8980,8981,9022,9021,9267,9268,9309,9308
7522,8981,8982,9023,9022,9268,9269,9310,9309
7523,8982,8983,9024,9023,9269,9270,9311,9310
7524,8983,8984,9025,9024,9270,9271,9312,9311
7525,8984,8985,9026,9025,9271,9272,9313,9312
7526,8985,8986,9027,9026,9272,9273,9314,9313
7527,8986,8987,9028,9027,9273,9274,9315,9314
7528,8987,8988,9029,9028,9274,9275,9316,9315
7529,8988,8989,9030,9029,9275,9276,9317,9316
7530,8989,8990,9031,9030,9276,9277,9318,9317
7531,8990,8991,9032,9031,9277,9278,9319,9318
7532,8991,8992,9033,9032,9278,9279,9320,9319
7533,8992,8993,9034,9033,9279,9280,9321,9320
7534,8993,8994,9035,9034,9280,9281,9322,9321
7535,8994,8995,9036,9035,9281,9282,9323,9322
7536,8995,8996,9037,9036,9282,9283,9324,9323
7537,8996,8997,9038,9037,9283,9284,9325,9324
7538,8997,8998,9039,9038,9284,9285,9326,9325
7539,8998,8999,9040,9039,9285,9286,9327,9326
7540,8999,9000,9041,9040,9286,9287,9328,9327
7541,9000,9001,9042,9041,9287,9288,9329,9328
7542,9001,9002,9043,9042,9288,9289,9330,9329
7543,9002,9003,9044,9043,9289,9290,9331,9330
7544,9003,9004,9045,9044,9290,9291,9332,9331
7545,9004,9005,9046,9045,9291,9292,9333,9332
7546,9005,9006,9047,9046,9292,9293,9334,9333
7547,9006,9007,9048,9047,9293,9294,9335,9334
7548,9007,9008,9049,9048,9294,9295,9336,9335
7549,9008,9009,9050,9049,9295,9296,9337,9336
7550,9009,9010,9051,9050,9296,9297,9338,9337
7551,9010,9011,9052,9051,9297,9298,9339,9338
7552,9011,9012,9053,9052,9298,9299,9340,9339
7553,9012,9013,9054,9053,9299,9300,9341,9340
7554,9013,9014,9055,9054,9300,9301,9342,9341
7555,9014,9015,9056,9055,9301,9302,9343,9342
7556,9015,9016,9057,9056,9302,9303,9344,9343
7557,9016,9017,9058,9057,9303,9304,9345,9344
7558,9017,9018,9059,9058,9304,9305,9346,9345
7559,9018,9019,9060,9059,9305,9306,9347,9346
7560,9019,9020,9061,9060,9306,9307,9348,9347
7561,9021,9022,9063,9062,9308,9309,9350,9349
7562,9022,9023,9064,9063,9309,9310,9351,9350
7563,9023,9024,9065,9064,9310,9311,9352,9351
7564,9024,9025,9066,9065,9311,9312,9353,9352
7565,9025,9026,9067,9066,9312,9313,9354,9353
7566,9026,9027,9068,9067,9313,9314,9355,9354
7567,9027,9028,9069,9068,9314,9315,9356,9355
7568,9028,9029,9070,9069,9315,9316,9357,9356
7569,9029,9030,9071,9070,9316,9317,9358,9357
7570,9030,9031,9072,9071,9317,9318,9359,9358
7571,9031,9032,9073,9072,9318,9319,9360,9359
7572,9032,9033,9074,9073,9319,9320,9361,9360
7573,9033,9034,9075,9074,9320,9321,9362,9361
7574,9034,9035,9076,9075,9321,9322,9363,9362
7575,9035,9036,9077,9076,9322,9323,9364,9363
7576,9036,9037,9078,9077,9323,9324,9365,9364
7577,9037,9038,9079,9078,9324,9325,9366,9365
7578,9038,9039,9080,9079,9325,9326,9367,9366
7579,9039,9040,9081,9080,9326,9327,9368,9367
7580,9040,9041,9082,9081,9327,9328,9369,9368
7581,9041,9042,9083,9082,9328,9329,9370,9369
7582,9042,9043,9084,9083,9329,9330,9371,9370
7583,9043,9044,9085,9084,9330,9331,9372,9371
7584,9044,9045,9086,9085,9331,9332,9373,9372
7585,9045,9046,9087,9086,9332,9333,9374,9373
7586,9046,9047,9088,9087,9333,9334,9375,9374
7587,9047,9048,9089,9088,9334,9335,9376,9375
7588,9048,9049,9090,9089,9335,9336,9377,9376
7589,9049,9050,9091,9090,9336,9337,9378,9377
7590,9050,9051,9092,9091,9337,9338,9379,9378
7591,9051,9052,9093,9092,9338,9339,9380,9379
7592,9052,9053,9094,9093,9339,9340,9381,9380
7593,9053,9054,9095,9094,9340,9341,9382,9381
7594,9054,9055,9096,9095,9341,9342,9383,9382
7595,9055,9056,9097,9096,9342,9343,9384,9383
7596,9056,9057,9098,9097,9343,9344,9385,9384
7597,9057,9058,9099,9098,9344,9345,9386,9385
7598,9058,9059,9100,9099,9345,9346,9387,9386
7599,9059,9060,9101,9100,9346,9347,9388,9387
7600,9060,9061,9102,9101,9347,9348,9389,9388
7601,9062,9063,9104,9103,9349,9350,9391,9390
7602,9063,9064,9105,9104,9350,9351,9392,9391
7603,9064,9065,9106,9105,9351,9352,9393,9392
7604,9065,9066,9107,9106,9352,9353,9394,9393
7605,9066,9067,9108,9107,9353,9354,9395,9394
7606,9067,9068,9109,9108,9354,9355,9396,9395
7607,9068,9069,9110,9109,9355,9356,9397,9396
7608,9069,9070,9111,9110,9356,9357,9398,9397
7609,9070,9071,9112,9111,9357,9358,9399,9398
7610,9071,9072,9113,9112,9358,9359,9400,9399
7611,9072,9073,9114,9113,9359,9360,9401,9400
7612,9073,9074,9115,9114,9360,9361,9402,9401
7613,9074,9075,9116,9115,9361,9362,9403,9402
7614,9075,9076,9117,9116,9362,9363,9404,9403
7615,9076,9077,9118,9117,9363,9364,9405,9404
7616,9077,9078,9119,9118,9364,9365,9406,9405
7617,9078,9079,9120,9119,9365,9366,9407,9406
7618,9079,9080,9121,9120,9366,9367,9408,9407
7619,9080,9081,9122,9121,9367,9368,9409,9408
7620,9081,9082,9123,9122,9368,9369,9410,9409
7621,9082,9083,9124,9123,9369,9370,9411,9410
7622,9083,9084,9125,9124,9370,9371,9412,9411
7623,9084,9085,9126,9125,9371,9372,9413,9412
7624,9085,9086,9127,9126,9372,9373,9414,9413
7625,9086,9087,9128,9127,9373,9374,9415,9414
7626,9087,9088,9129,9128,9374,9375,9416,9415
7627,9088,9089,9130,9129,9375,9376,9417,9416
7628,9089,9090,9131,9130,9376,9377,9418,9417
7629,9090,9091,9132,9131,9377,9378,9419,9418
7630,9091,9092,9133,9132,9378,9379,9420,9419
7631,9092,9093,9134,9133,9379,9380,9421,9420
7632,9093,9094,9135,9134,9380,9381,9422,9421
7633,9094,9095,9136,9135,9381,9382,9423,9422
7634,9095,9096,9137,9136,9382,9383,9424,9423
7635,9096,9097,9138,9137,9383,9384,9425,9424
7636,9097,9098,9139,9138,9384,9385,9426,9425
7637,9098,9099,9140,9139,9385,9386,9427,9426
7638,9099,9100,9141,9140,9386,9387,9428,9427
7639,9100,9101,9142,9141,9387,9388,9429,9428
7640,9101,9102,9143,9142,9388,9389,9430,9429
7641,9103,9104,9145,9144,9390,9391,9432,9431
7642,9104,9105,9146,9145,9391,9392,9433,9432
7643,9105,9106,9147,9146,9392,9393,9434,9433
7644,9106,9107,9148,9147,9393,9394,9435,9434
7645,9107,9108,9149,9148,9394,9395,9436,9435
7646,9108,9109,9150,9149,9395,9396,9437,9436
7647,9109,9110,9151,9150,9396,9397,9438,9437
7648,9110,9111,9152,9151,9397,9398,9439,9438
7649,9111,9112,9153,9152,9398,9399,9440,9439
7650,9112,9113,9154,9153,9399,9400,9441,9440
7651,9113,9114,9155,9154,9400,9401,9442,9441
7652,9114,9115,9156,9155,9401,9402,9443,9442
7653,9115,9116,9157,9156,9402,9403,9444,9443
7654,9116,9117,9158,9157,9403,9404,9445,9444
7655,9117,9118,9159,9158,9404,9405,9446,9445
7656,9118,9119,9160,9159,9405,9406,9447,9446
7657,9119,9120,9161,9160,9406,9407,9448,9447
7658,9120,9121,9162,9161,9407,9408,9449,9448
7659,9121,9122,9163,9162,9408,9409,9450,9449
7660,9122,9123,9164,9163,9409,9410,9451,9450
7661,9123,9124,9165,9164,9410,9411,9452,9451
7662,9124,9125,9166,9165,9411,9412,9453,9452
7663,9125,9126,9167,9166,9412,9413,9454,9453
7664,9126,9127,9168,9167,9413,9414,9455,9454
7665,9127,9128,9169,9168,9414,9415,9456,9455
7666,9128,9129,9170,9169,9415,9416,9457,9456
7667,9129,9130,9171,9170,9416,9417,9458,9457
7668,9130,9131,9172,9171,9417,9418,9459,9458
7669,9131,9132,9173,9172,9418,9419,9460,9459
7670,9132,9133,9174,9173,9419,9420,9461,9460
7671,9133,9134,9175,9174,9420,9421,9462,9461
7672,9134,9135,9176,9175,9421,9422,9463,9462
7673,9135,9136,9177,9176,9422,9423,9464,9463
7674,9136,9137,9178,9177,9423,9424,9465,9464
7675,9137,9138,9179,9178,9424,9425,9466,9465
7676,9138,9139,9180,9179,9425,9426,9467,9466
7677,9139,9140,9181,9180,9426,9427,9468,9467
7678,9140,9141,9182,9181,9427,9428,9469,9468
7679,9141,9142,9183,9182,9428,9429,9470,9469
7680,9142,9143,9184,9183,9429,9430,9471,9470
*NSET,NSET=FIXED_EDGES
1,2,3,4,5,6,7,8,9,10,11,12,13,14,15,16
17,18,19,20,21,22,23,24,25,26,27,28,29,30,31,32
33,34,35,36,37,38,39,40,41,42,43,44,45,46,47,48
49,50,51,52,53,54,55,56,57,58,59,60,61,62,63,64
65,66,67,68,69,70,71,72,73,74,75,76,77,78,79,80
81,82,83,84,85,86,87,88,89,90,91,92,93,94,95,96
97,98,99,100,101,102,103,104,105,106,107,108,109,110,111,112
113,114,115,116,117,118,119,120,121,122,123,124,125,126,127,128
129,130,131,132,133,134,135,136,137,138,139,140,141,142,143,144
145,146,147,148,149,150,151,152,153,154,155,156,157,158,159,160
161,162,163,164,165,166,167,168,169,170,171,172,173,174,175,176
177,178,179,180,181,182,183,184,185,186,187,188,189,190,191,192
193,194,195,196,197,198,199,200,201,202,203,204,205,206,207,208
209,210,211,212,213,214,215,216,217,218,219,220,221,222,223,224
225,226,227,228,229,230,231,232,233,234,235,236,237,238,239,240
241,242,243,244,245,246,247,248,249,250,251,252,253,254,255,256
257,258,259,260,261,262,263,264,265,266,267,268,269,270,271,272
273,274,275,276,277,278,279,280,281,282,283,284,285,286,287,9185
9186,9187,9188,9189,9190,9191,9192,9193,9194,9195,9196,9197,9198,9199,9200,9201
9202,9203,9204,9205,9206,9207,9208,9209,9210,9211,9212,9213,9214,9215,9216,9217
9218,9219,9220,9221,9222,9223,9224,9225,9226,9227,9228,9229,9230,9231,9232,9233
9234,9235,9236,9237,9238,9239,9240,9241,9242,9243,9244,9245,9246,9247,9248,9249
9250,9251,9252,9253,9254,9255,9256,9257,9258,9259,9260,9261,9262,9263,9264,9265
9266,9267,9268,9269,9270,9271,9272,9273,9274,9275,9276,9277,9278,9279,9280,9281
9282,9283,9284,9285,9286,9287,9288,9289,9290,9291,9292,9293,9294,9295,9296,9297
9298,9299,9300,9301,9302,9303,9304,9305,9306,9307,9308,9309,9310,9311,9312,9313
9314,9315,9316,9317,9318,9319,9320,9321,9322,9323,9324,9325,9326,9327,9328,9329
9330,9331,9332,9333,9334,9335,9336,9337,9338,9339,9340,9341,9342,9343,9344,9345
9346,9347,9348,9349,9350,9351,9352,9353,9354,9355,9356,9357,9358,9359,9360,9361
9362,9363,9364,9365,9366,9367,9368,9369,9370,9371,9372,9373,9374,9375,9376,9377
9378,9379,9380,9381,9382,9383,9384,9385,9386,9387,9388,9389,9390,9391,9392,9393
9394,9395,9396,9397,9398,9399,9400,9401,9402,9403,9404,9405,9406,9407,9408,9409
9410,9411,9412,9413,9414,9415,9416,9417,9418,9419,9420,9421,9422,9423,9424,9425
9426,9427,9428,9429,9430,9431,9432,9433,9434,9435,9436,9437,9438,9439,9440,9441
9442,9443,9444,9445,9446,9447,9448,9449,9450,9451,9452,9453,9454,9455,9456,9457
9458,9459,9460,9461,9462,9463,9464,9465,9466,9467,9468,9469,9470,9471
*NSET,NSET=DETENT_PATCH
4031,4032,4033,4034,4035,4036,4037,4038,4039,4040,4041,4042,4043,4044,4045,4046
4047,4318,4319,4320,4321,4322,4323,4324,4325,4326,4327,4328,4329,4330,4331,4332
4333,4334,4605,4606,4607,4608,4609,4610,4611,4612,4613,4614,4615,4616,4617,4618
4619,4620,4621,4892,4893,4894,4895,4896,4897,4898,4899,4900,4901,4902,4903,4904
4905,4906,4907,4908,5179,5180,5181,5182,5183,5184,5185,5186,5187,5188,5189,5190
5191,5192,5193,5194,5195
*MATERIAL,NAME=PETG_PRINTED_XY
*ELASTIC
1939.,0.38
*PLASTIC
46.2,0.0
50.0,0.020
*SOLID SECTION,ELSET=WALL,MATERIAL=PETG_PRINTED_XY
*STEP,NLGEOM
*STATIC
0.05,1.0,1.E-05,0.10
*BOUNDARY
FIXED_EDGES,1,3,0.0
DETENT_PATCH,2,2,0.050000
*NODE FILE
U,RF
*EL FILE
S,PEEQ
*NODE PRINT,NSET=DETENT_PATCH,TOTALS=YES
RF
*EL PRINT,ELSET=WALL
S,PEEQ
*END STEP
